Structure 4 made from 0-21-8.xsd file
1.0
        8.7007307979       -4.0053990701        0.0000000000
        0.0000000000       11.4527836704       -0.0000000000
        0.0000000000        0.0000000000       20.2163973509
   Ni    S
   38   38
Direct
     0.637935914     0.429045576     0.051359809
     0.728992922     0.611159592     0.175175868
     0.820049929     0.793273607     0.298991927
     0.911106937     0.975387622     0.422807986
     0.456364260     0.065902268     0.257719908
     0.547421268     0.248016283     0.381535967
     0.638478275     0.430130299     0.505352026
     0.274250245     0.701674238     0.010087790
     0.365307253     0.883788253     0.133903849
     0.001621584     0.156416915     0.092631829
     0.092678591     0.338530930     0.216447888
     0.183735599     0.520644945     0.340263947
     0.274792606     0.702758960     0.464080006
     0.686051530     0.261070807     0.116785701
     0.777108537     0.443184823     0.240601760
     0.868165545     0.625298838     0.364417819
     0.959222552     0.807412853     0.488233878
     0.595536883     0.080041514     0.446961858
     0.322365861     0.533699469     0.075513681
     0.413422868     0.715813484     0.199329740
     0.504479876     0.897927499     0.323145799
     0.140794207     0.170556161     0.281873779
     0.231851214     0.352670176     0.405689838
     0.049737199     0.988442146     0.158057720
     0.958680191     0.806328131     0.034241661
     0.084255929     0.793273607     0.298991927
     0.175312937     0.975387622     0.422807986
     0.902141914     0.429045576     0.051359809
     0.993198922     0.611159592     0.175175868
     0.720570260     0.065902268     0.257719908
     0.811627268     0.248016283     0.381535967
     0.902684275     0.430130299     0.505352026
     0.538456245     0.701674238     0.010087790
     0.629513253     0.883788253     0.133903849
     0.265827584     0.156416915     0.092631829
     0.356884591     0.338530930     0.216447888
     0.447941599     0.520644945     0.340263947
     0.538998606     0.702758960     0.464080006
     0.013407097     0.579351942     0.289670972
     0.104464105     0.761465957     0.413487031
     0.831293082     0.215123912     0.042038854
     0.922350090     0.397237927     0.165854913
     0.740778436     0.034094619     0.372215011
     0.831835443     0.216208634     0.496031070
     0.467607413     0.487752574     0.000766834
     0.558664420     0.669866589     0.124582893
     0.649721428     0.851980604     0.248398952
     0.286035759     0.124609265     0.207126932
     0.377092766     0.306723281     0.330942991
     0.468149774     0.488837296     0.454759050
     0.194978751     0.942495250     0.083310873
     0.134252494     0.157472736     0.453992216
     0.043195487     0.975358721     0.330176157
     0.861081472     0.611130691     0.082544039
     0.952138479     0.793244706     0.206360098
     0.588452810     0.065873368     0.165088079
     0.679509817     0.247987383     0.288904138
     0.770566825     0.430101398     0.412720197
     0.497395802     0.883759353     0.041272020
     0.133710133     0.156388014    -0.000000000
     0.224767141     0.338502029     0.123816059
     0.315824148     0.520616044     0.247632118
     0.406881156     0.702730060     0.371448177
     0.497938163     0.884844075     0.495264236
     0.494863082     0.215123912     0.042038854
     0.585920090     0.397237927     0.165854913
     0.676977097     0.579351942     0.289670972
     0.768034105     0.761465957     0.413487031
     0.404348436     0.034094619     0.372215011
     0.131177413     0.487752574     0.000766834
     0.222234420     0.669866589     0.124582893
     0.313291428     0.851980604     0.248398952
     0.040662766     0.306723281     0.330942991
     0.131719774     0.488837296     0.454759050
     0.949605759     0.124609265     0.207126932
     0.858548751     0.942495250     0.083310873
