gamma-point-only calculation. no periodic boundary condition
0
Gamma
1 1 1
0 0 0
