Structure 45 made from -111-5.xsd file  
   1.00000000000000     
    10.0628203370999998    5.0445621212000002    0.0000000000000000
     0.0000000000000000   11.2564630381999997    0.0000000000000000
     0.0000000000000000    0.0000000000000000   21.7442318436000015
   Ni   S 
    48    48
Direct
  0.2609206959999995  0.4787803600000018  0.2533279880000023
  0.3548805619999982  0.3848204929999994  0.3883549680000016
  0.4488404279999969  0.2908606270000007  0.5233819480000008
  0.1669608289999971  0.0727402409999982  0.1183010080000031
  0.0561186790000008  0.0514793950000012  0.4877070100000012
  0.2742390650000033  0.3333589940000010  0.0826260700000034
  0.3681989310000020  0.2393991280000023  0.2176530500000027
  0.4621587979999973  0.1454392619999965  0.3526800300000019
  0.0003019420000001  0.3715021240000027  0.2176530500000027
  0.0942618090000025  0.2775422579999969  0.3526800300000019
  0.1882216750000012  0.1835823910000016  0.4877070100000012
  0.4063420609999966  0.4654619909999980  0.0826260700000034
  0.7609206959999995  0.4787803600000018  0.2533279880000023
  0.8548805619999982  0.3848204929999994  0.3883549680000016
  0.9488404279999969  0.2908606270000007  0.5233819480000008
  0.6669608289999971  0.0727402409999982  0.1183010080000031
  0.5561186790000008  0.0514793950000012  0.4877070100000012
  0.7742390650000033  0.3333589940000010  0.0826260700000034
  0.8681989310000020  0.2393991280000023  0.2176530500000027
  0.9621587979999973  0.1454392619999965  0.3526800300000019
  0.5003019420000001  0.3715021240000027  0.2176530500000027
  0.5942618090000025  0.2775422579999969  0.3526800300000019
  0.6882216750000012  0.1835823910000016  0.4877070100000012
  0.9063420609999966  0.4654619909999980  0.0826260700000034
  0.2609206959999995  0.9787803600000018  0.2533279880000023
  0.3548805619999982  0.8848204929999994  0.3883549680000016
  0.4488404279999969  0.7908606270000007  0.5233819480000008
  0.1669608289999971  0.5727402409999982  0.1183010080000031
  0.0561186790000008  0.5514793950000012  0.4877070100000012
  0.2742390650000033  0.8333589940000010  0.0826260700000034
  0.3681989310000020  0.7393991280000023  0.2176530500000027
  0.4621587979999973  0.6454392619999965  0.3526800300000019
  0.0003019420000001  0.8715021240000027  0.2176530500000027
  0.0942618090000025  0.7775422579999969  0.3526800300000019
  0.1882216750000012  0.6835823910000016  0.4877070100000012
  0.4063420609999966  0.9654619909999980  0.0826260700000034
  0.7609206959999995  0.9787803600000018  0.2533279880000023
  0.8548805619999982  0.8848204929999994  0.3883549680000016
  0.9488404279999969  0.7908606270000007  0.5233819480000008
  0.6669608289999971  0.5727402409999982  0.1183010080000031
  0.5561186790000008  0.5514793950000012  0.4877070100000012
  0.7742390650000033  0.8333589940000010  0.0826260700000034
  0.8681989310000020  0.7393991280000023  0.2176530500000027
  0.9621587979999973  0.6454392619999965  0.3526800300000019
  0.5003019420000001  0.8715021240000027  0.2176530500000027
  0.5942618090000025  0.7775422579999969  0.3526800300000019
  0.6882216750000012  0.6835823910000016  0.4877070100000012
  0.9063420609999966  0.9654619909999980  0.0826260700000034
  0.0728776349999976  0.1668234349999977  0.2700539599999985
  0.1668375019999999  0.0728635680000025  0.4050809399999977
  0.4789177540000011  0.2607833010000036  0.1350269799999992
  0.2607973679999986  0.4789036869999990  0.5401079199999970
  0.0302334249999987  0.3776826400000033  0.4505080670000012
  0.4362735429999987  0.4716425069999985  0.3154810870000020
  0.2483538110000012  0.1595622549999973  0.0454271270000035
  0.3423136769999999  0.0656023880000021  0.1804541070000028
  0.0801388160000016  0.4913472450000000  0.0454271270000035
  0.1740986820000003  0.3973873779999977  0.1804541070000028
  0.2680585479999991  0.3034275119999990  0.3154810870000020
  0.3620184150000014  0.2094676449999966  0.4505080670000012
  0.5728776349999976  0.1668234349999977  0.2700539599999985
  0.6668375019999999  0.0728635680000025  0.4050809399999977
  0.8849578880000024  0.3547431679999988  0.0000000000000000
  0.9789177540000011  0.2607833010000036  0.1350269799999992
  0.7607973679999986  0.4789036869999990  0.5401079199999970
  0.5302334249999987  0.3776826400000033  0.4505080670000012
  0.9362735429999987  0.4716425069999985  0.3154810870000020
  0.8423136769999999  0.0656023880000021  0.1804541070000028
  0.5801388160000016  0.4913472450000000  0.0454271270000035
  0.6740986820000003  0.3973873779999977  0.1804541070000028
  0.7680585479999991  0.3034275119999990  0.3154810870000020
  0.8620184150000014  0.2094676449999966  0.4505080670000012
  0.0728776349999976  0.6668234349999977  0.2700539599999985
  0.1668375019999999  0.5728635680000025  0.4050809399999977
  0.4789177540000011  0.7607833010000036  0.1350269799999992
  0.2607973679999986  0.9789036869999990  0.5401079199999970
  0.0302334249999987  0.8776826400000033  0.4505080670000012
  0.4362735429999987  0.9716425069999985  0.3154810870000020
  0.2483538110000012  0.6595622549999973  0.0454271270000035
  0.3423136769999999  0.5656023880000021  0.1804541070000028
  0.0801388160000016  0.9913472450000000  0.0454271270000035
  0.1740986820000003  0.8973873779999977  0.1804541070000028
  0.2680585479999991  0.8034275119999990  0.3154810870000020
  0.3620184150000014  0.7094676449999966  0.4505080670000012
  0.5728776349999976  0.6668234349999977  0.2700539599999985
  0.6668375019999999  0.5728635680000025  0.4050809399999977
  0.8849578880000024  0.8547431679999988  0.0000000000000000
  0.9789177540000011  0.7607833010000036  0.1350269799999992
  0.7607973679999986  0.9789036869999990  0.5401079199999970
  0.5302334249999987  0.8776826400000033  0.4505080670000012
  0.9362735429999987  0.9716425069999985  0.3154810870000020
  0.8423136769999999  0.5656023880000021  0.1804541070000028
  0.5801388160000016  0.9913472450000000  0.0454271270000035
  0.6740986820000003  0.8973873779999977  0.1804541070000028
  0.7680585479999991  0.8034275119999990  0.3154810870000020
  0.8620184150000014  0.7094676449999966  0.4505080670000012
 
  0.00000000E+00  0.00000000E+00  0.00000000E+00
  0.00000000E+00  0.00000000E+00  0.00000000E+00
  0.00000000E+00  0.00000000E+00  0.00000000E+00
  0.00000000E+00  0.00000000E+00  0.00000000E+00
  0.00000000E+00  0.00000000E+00  0.00000000E+00
  0.00000000E+00  0.00000000E+00  0.00000000E+00
  0.00000000E+00  0.00000000E+00  0.00000000E+00
  0.00000000E+00  0.00000000E+00  0.00000000E+00
  0.00000000E+00  0.00000000E+00  0.00000000E+00
  0.00000000E+00  0.00000000E+00  0.00000000E+00
  0.00000000E+00  0.00000000E+00  0.00000000E+00
  0.00000000E+00  0.00000000E+00  0.00000000E+00
  0.00000000E+00  0.00000000E+00  0.00000000E+00
  0.00000000E+00  0.00000000E+00  0.00000000E+00
  0.00000000E+00  0.00000000E+00  0.00000000E+00
  0.00000000E+00  0.00000000E+00  0.00000000E+00
  0.00000000E+00  0.00000000E+00  0.00000000E+00
  0.00000000E+00  0.00000000E+00  0.00000000E+00
  0.00000000E+00  0.00000000E+00  0.00000000E+00
  0.00000000E+00  0.00000000E+00  0.00000000E+00
  0.00000000E+00  0.00000000E+00  0.00000000E+00
  0.00000000E+00  0.00000000E+00  0.00000000E+00
  0.00000000E+00  0.00000000E+00  0.00000000E+00
  0.00000000E+00  0.00000000E+00  0.00000000E+00
  0.00000000E+00  0.00000000E+00  0.00000000E+00
  0.00000000E+00  0.00000000E+00  0.00000000E+00
  0.00000000E+00  0.00000000E+00  0.00000000E+00
  0.00000000E+00  0.00000000E+00  0.00000000E+00
  0.00000000E+00  0.00000000E+00  0.00000000E+00
  0.00000000E+00  0.00000000E+00  0.00000000E+00
  0.00000000E+00  0.00000000E+00  0.00000000E+00
  0.00000000E+00  0.00000000E+00  0.00000000E+00
  0.00000000E+00  0.00000000E+00  0.00000000E+00
  0.00000000E+00  0.00000000E+00  0.00000000E+00
  0.00000000E+00  0.00000000E+00  0.00000000E+00
  0.00000000E+00  0.00000000E+00  0.00000000E+00
  0.00000000E+00  0.00000000E+00  0.00000000E+00
  0.00000000E+00  0.00000000E+00  0.00000000E+00
  0.00000000E+00  0.00000000E+00  0.00000000E+00
  0.00000000E+00  0.00000000E+00  0.00000000E+00
  0.00000000E+00  0.00000000E+00  0.00000000E+00
  0.00000000E+00  0.00000000E+00  0.00000000E+00
  0.00000000E+00  0.00000000E+00  0.00000000E+00
  0.00000000E+00  0.00000000E+00  0.00000000E+00
  0.00000000E+00  0.00000000E+00  0.00000000E+00
  0.00000000E+00  0.00000000E+00  0.00000000E+00
  0.00000000E+00  0.00000000E+00  0.00000000E+00
  0.00000000E+00  0.00000000E+00  0.00000000E+00
  0.00000000E+00  0.00000000E+00  0.00000000E+00
  0.00000000E+00  0.00000000E+00  0.00000000E+00
  0.00000000E+00  0.00000000E+00  0.00000000E+00
  0.00000000E+00  0.00000000E+00  0.00000000E+00
  0.00000000E+00  0.00000000E+00  0.00000000E+00
  0.00000000E+00  0.00000000E+00  0.00000000E+00
  0.00000000E+00  0.00000000E+00  0.00000000E+00
  0.00000000E+00  0.00000000E+00  0.00000000E+00
  0.00000000E+00  0.00000000E+00  0.00000000E+00
  0.00000000E+00  0.00000000E+00  0.00000000E+00
  0.00000000E+00  0.00000000E+00  0.00000000E+00
  0.00000000E+00  0.00000000E+00  0.00000000E+00
  0.00000000E+00  0.00000000E+00  0.00000000E+00
  0.00000000E+00  0.00000000E+00  0.00000000E+00
  0.00000000E+00  0.00000000E+00  0.00000000E+00
  0.00000000E+00  0.00000000E+00  0.00000000E+00
  0.00000000E+00  0.00000000E+00  0.00000000E+00
  0.00000000E+00  0.00000000E+00  0.00000000E+00
  0.00000000E+00  0.00000000E+00  0.00000000E+00
  0.00000000E+00  0.00000000E+00  0.00000000E+00
  0.00000000E+00  0.00000000E+00  0.00000000E+00
  0.00000000E+00  0.00000000E+00  0.00000000E+00
  0.00000000E+00  0.00000000E+00  0.00000000E+00
  0.00000000E+00  0.00000000E+00  0.00000000E+00
  0.00000000E+00  0.00000000E+00  0.00000000E+00
  0.00000000E+00  0.00000000E+00  0.00000000E+00
  0.00000000E+00  0.00000000E+00  0.00000000E+00
  0.00000000E+00  0.00000000E+00  0.00000000E+00
  0.00000000E+00  0.00000000E+00  0.00000000E+00
  0.00000000E+00  0.00000000E+00  0.00000000E+00
  0.00000000E+00  0.00000000E+00  0.00000000E+00
  0.00000000E+00  0.00000000E+00  0.00000000E+00
  0.00000000E+00  0.00000000E+00  0.00000000E+00
  0.00000000E+00  0.00000000E+00  0.00000000E+00
  0.00000000E+00  0.00000000E+00  0.00000000E+00
  0.00000000E+00  0.00000000E+00  0.00000000E+00
  0.00000000E+00  0.00000000E+00  0.00000000E+00
  0.00000000E+00  0.00000000E+00  0.00000000E+00
  0.00000000E+00  0.00000000E+00  0.00000000E+00
  0.00000000E+00  0.00000000E+00  0.00000000E+00
  0.00000000E+00  0.00000000E+00  0.00000000E+00
  0.00000000E+00  0.00000000E+00  0.00000000E+00
  0.00000000E+00  0.00000000E+00  0.00000000E+00
  0.00000000E+00  0.00000000E+00  0.00000000E+00
  0.00000000E+00  0.00000000E+00  0.00000000E+00
  0.00000000E+00  0.00000000E+00  0.00000000E+00
  0.00000000E+00  0.00000000E+00  0.00000000E+00
  0.00000000E+00  0.00000000E+00  0.00000000E+00
