Type_048 Type_148                       
   1.00000000000000     
    11.2564630381999997    0.0000000000000000    0.0000000000000000
     5.0445621212000002   10.0628203370999998    0.0000000000000000
     0.0000000000000000    0.0000000000000000   22.5199559731999983
   Ty   Ty
    48    48
Direct
  0.2609206910021911  0.4787803719934516  0.2951977369987446
  0.3548805580032663  0.3848205049953179  0.4255735679992156
  0.0256206338117053  0.2093222243503803  0.0927090572905485
  0.1669608249997268  0.0727402529985923  0.1648219070018300
  0.1876648073573577  0.4258843846291995  0.0339463139985625
  0.2742390600059466  0.3333590059967975  0.1303758300013556
  0.3681989270014085  0.2393991400023623  0.2607516610018337
  0.4621587929986148  0.1454392730042287  0.3911274909987483
  0.0003019379965465  0.3715021359983197  0.2607516610018337
  0.0942618040026346  0.2775422690001932  0.3911274909987483
  0.4063420560008097  0.4654620020026954  0.1303758300013556
  0.2044472880531956  0.0255776748841541  0.0497760928722073
  0.7609206910021911  0.4787803719934516  0.2951977369987446
  0.8548805580032663  0.3848205049953179  0.4255735679992156
  0.5407524346176729  0.1989487629048696  0.0882021226091112
  0.6669608249997268  0.0727402529985923  0.1648219070018300
  0.5515536956613758  0.0276941048100170  0.4808147715335593
  0.7141234606788558  0.5352536345245156  0.0497760535692890
  0.7742390600059466  0.3333590059967975  0.1303758300013556
  0.8681989270014085  0.2393991400023623  0.2607516610018337
  0.9621587929986148  0.1454392730042287  0.3911274909987483
  0.5003019380054354  0.3715021359983197  0.2607516610018337
  0.5942618040026346  0.2775422690001932  0.3911274909987483
  0.9063420560008097  0.4654620020026954  0.1303758300013556
  0.8324358723796763  0.0320876715158604  0.0275704826527559
  0.2609206909999671  0.9787803719984183  0.2951977369987446
  0.3548805580010423  0.8848205050002917  0.4255735679992156
  0.1669608250019579  0.5727402529936185  0.1648219070018300
  0.0281735954928095  0.5421303035180856  0.4883567178500670
  0.2742390599992888  0.8333590059918237  0.1303758300013556
  0.3681989270036325  0.7393991399973885  0.2607516610018337
  0.4621587930008388  0.6454392729992620  0.3911274909987483
  0.0003019379987776  0.8715021359933530  0.2607516610018337
  0.0942618040048657  0.7775422689952194  0.3911274909987483
  0.1979598719027678  0.7117645173186204  0.4880441809823921
  0.4063420560030337  0.9654620019977287  0.1303758300013556
  0.3138168727335113  0.5520362454867112  0.0339463070047614
  0.7609206909999671  0.9787803719984183  0.2951977369987446
  0.8548805580010423  0.8848205050002917  0.4255735679992156
  0.5303783995170548  0.7140800173593149  0.0927089963668024
  0.6669608250019579  0.5727402529936185  0.1648219070018300
  0.7076133650633238  0.9072653959387935  0.0275704586829093
  0.7742390600081777  0.8333590059918237  0.1303758300013556
  0.8681989270036325  0.7393991399973885  0.2607516610018337
  0.9621587930008388  0.6454392729992620  0.3911274909987483
  0.5003019380076594  0.8715021359933530  0.2607516610018337
  0.5942618040048657  0.7775422689952194  0.3911274909987483
  0.9063420560030337  0.9654620019977287  0.1303758300013556
  0.0728776309965369  0.1668234470023151  0.3113475650016397
  0.1643619592134939  0.0760523820124703  0.4182141196283027
  0.3849578830003253  0.3547431790011188  0.0505959049989215
  0.4789177500002353  0.2607833129967503  0.1809717350002842
  0.0205542856906291  0.3699058137087547  0.4709384132020986
  0.4362735390021513  0.4716425189965960  0.3552099060015763
  0.2483538060042321  0.1595622659961649  0.0944582449997426
  0.3423136729996870  0.0656024000017297  0.2248340760002208
  0.0800486284047324  0.4842571497211452  0.1089403738897019
  0.1740986779961347  0.3973873900000910  0.2248340760002208
  0.2680585440010645  0.3034275239957154  0.3552099060015763
  0.3939303532276526  0.2123156418010481  0.4744099448557648
  0.5728776310054258  0.1668234470023151  0.3113475650016397
  0.6657412736852280  0.0753875439177918  0.4245844505592657
  0.8762639870504856  0.3636797278500055  0.0546086070889089
  0.9789177500091171  0.2607833129967503  0.1809717350002842
  0.5183273590032513  0.3740868426937283  0.4672316050716034
  0.9362735390021513  0.4716425189965960  0.3552099060015763
  0.7483538060042321  0.1595622659961649  0.0944582449997426
  0.8423136729996870  0.0656024000017297  0.2248340760002208
  0.5801388110039483  0.4913472569982247  0.0944582449997426
  0.6740986780050235  0.3973873900000910  0.2248340760002208
  0.7680585440010645  0.3034275239957154  0.3552099060015763
  0.8778050763776264  0.2205982288798083  0.4691867239604832
  0.0728776309987680  0.6668234469973413  0.3113475650016397
  0.1668374979998362  0.5728635799992148  0.4417233960021107
  0.3760213637470784  0.8634372484189612  0.0546086331724425
  0.4789177499980113  0.7607833130017170  0.1809717350002842
  0.0208777800534463  0.8694702994291390  0.4712209687234150
  0.4362735390043753  0.9716425189916222  0.3552099060015763
  0.2554439268384527  0.6596524403031339  0.1089403590140066
  0.3423136730019110  0.5656023999967630  0.2248340760002208
  0.0735749489820350  0.9945888374455762  0.1046113495649621
  0.1740986779983658  0.8973873899951244  0.2248340760002208
  0.2680585439988405  0.8034275240006892  0.3552099060015763
  0.3703329072543085  0.7193350230563738  0.4710086823625659
  0.5728776309987680  0.6668234469973413  0.3113475650016397
  0.6634566751830633  0.5755778747282250  0.4181199430409919
  0.8927916755271497  0.8469093534920518  0.0604476318790290
  0.9789177499980113  0.7607833130017170  0.1809717350002842
  0.5207447790376563  0.8660270858727728  0.4715706131458717
  0.9362735390043753  0.9716425189916222  0.3552099060015763
  0.7451121997092756  0.6661260836176055  0.1046111983302112
  0.8423136730019110  0.5656023999967630  0.2248340760002208
  0.5801388110061794  0.9913472569932509  0.0944582449997426
  0.6740986780072475  0.8973873899951244  0.2248340760002208
  0.7680585439988405  0.8034275240006892  0.3552099060015763
  0.8702913909003342  0.7189061706913904  0.4713814639572576
 
  0.00000000E+00  0.00000000E+00  0.00000000E+00
  0.00000000E+00  0.00000000E+00  0.00000000E+00
  0.00000000E+00  0.00000000E+00  0.00000000E+00
  0.00000000E+00  0.00000000E+00  0.00000000E+00
  0.00000000E+00  0.00000000E+00  0.00000000E+00
  0.00000000E+00  0.00000000E+00  0.00000000E+00
  0.00000000E+00  0.00000000E+00  0.00000000E+00
  0.00000000E+00  0.00000000E+00  0.00000000E+00
  0.00000000E+00  0.00000000E+00  0.00000000E+00
  0.00000000E+00  0.00000000E+00  0.00000000E+00
  0.00000000E+00  0.00000000E+00  0.00000000E+00
  0.00000000E+00  0.00000000E+00  0.00000000E+00
  0.00000000E+00  0.00000000E+00  0.00000000E+00
  0.00000000E+00  0.00000000E+00  0.00000000E+00
  0.00000000E+00  0.00000000E+00  0.00000000E+00
  0.00000000E+00  0.00000000E+00  0.00000000E+00
  0.00000000E+00  0.00000000E+00  0.00000000E+00
  0.00000000E+00  0.00000000E+00  0.00000000E+00
  0.00000000E+00  0.00000000E+00  0.00000000E+00
  0.00000000E+00  0.00000000E+00  0.00000000E+00
  0.00000000E+00  0.00000000E+00  0.00000000E+00
  0.00000000E+00  0.00000000E+00  0.00000000E+00
  0.00000000E+00  0.00000000E+00  0.00000000E+00
  0.00000000E+00  0.00000000E+00  0.00000000E+00
  0.00000000E+00  0.00000000E+00  0.00000000E+00
  0.00000000E+00  0.00000000E+00  0.00000000E+00
  0.00000000E+00  0.00000000E+00  0.00000000E+00
  0.00000000E+00  0.00000000E+00  0.00000000E+00
  0.00000000E+00  0.00000000E+00  0.00000000E+00
  0.00000000E+00  0.00000000E+00  0.00000000E+00
  0.00000000E+00  0.00000000E+00  0.00000000E+00
  0.00000000E+00  0.00000000E+00  0.00000000E+00
  0.00000000E+00  0.00000000E+00  0.00000000E+00
  0.00000000E+00  0.00000000E+00  0.00000000E+00
  0.00000000E+00  0.00000000E+00  0.00000000E+00
  0.00000000E+00  0.00000000E+00  0.00000000E+00
  0.00000000E+00  0.00000000E+00  0.00000000E+00
  0.00000000E+00  0.00000000E+00  0.00000000E+00
  0.00000000E+00  0.00000000E+00  0.00000000E+00
  0.00000000E+00  0.00000000E+00  0.00000000E+00
  0.00000000E+00  0.00000000E+00  0.00000000E+00
  0.00000000E+00  0.00000000E+00  0.00000000E+00
  0.00000000E+00  0.00000000E+00  0.00000000E+00
  0.00000000E+00  0.00000000E+00  0.00000000E+00
  0.00000000E+00  0.00000000E+00  0.00000000E+00
  0.00000000E+00  0.00000000E+00  0.00000000E+00
  0.00000000E+00  0.00000000E+00  0.00000000E+00
  0.00000000E+00  0.00000000E+00  0.00000000E+00
  0.00000000E+00  0.00000000E+00  0.00000000E+00
  0.00000000E+00  0.00000000E+00  0.00000000E+00
  0.00000000E+00  0.00000000E+00  0.00000000E+00
  0.00000000E+00  0.00000000E+00  0.00000000E+00
  0.00000000E+00  0.00000000E+00  0.00000000E+00
  0.00000000E+00  0.00000000E+00  0.00000000E+00
  0.00000000E+00  0.00000000E+00  0.00000000E+00
  0.00000000E+00  0.00000000E+00  0.00000000E+00
  0.00000000E+00  0.00000000E+00  0.00000000E+00
  0.00000000E+00  0.00000000E+00  0.00000000E+00
  0.00000000E+00  0.00000000E+00  0.00000000E+00
  0.00000000E+00  0.00000000E+00  0.00000000E+00
  0.00000000E+00  0.00000000E+00  0.00000000E+00
  0.00000000E+00  0.00000000E+00  0.00000000E+00
  0.00000000E+00  0.00000000E+00  0.00000000E+00
  0.00000000E+00  0.00000000E+00  0.00000000E+00
  0.00000000E+00  0.00000000E+00  0.00000000E+00
  0.00000000E+00  0.00000000E+00  0.00000000E+00
  0.00000000E+00  0.00000000E+00  0.00000000E+00
  0.00000000E+00  0.00000000E+00  0.00000000E+00
  0.00000000E+00  0.00000000E+00  0.00000000E+00
  0.00000000E+00  0.00000000E+00  0.00000000E+00
  0.00000000E+00  0.00000000E+00  0.00000000E+00
  0.00000000E+00  0.00000000E+00  0.00000000E+00
  0.00000000E+00  0.00000000E+00  0.00000000E+00
  0.00000000E+00  0.00000000E+00  0.00000000E+00
  0.00000000E+00  0.00000000E+00  0.00000000E+00
  0.00000000E+00  0.00000000E+00  0.00000000E+00
  0.00000000E+00  0.00000000E+00  0.00000000E+00
  0.00000000E+00  0.00000000E+00  0.00000000E+00
  0.00000000E+00  0.00000000E+00  0.00000000E+00
  0.00000000E+00  0.00000000E+00  0.00000000E+00
  0.00000000E+00  0.00000000E+00  0.00000000E+00
  0.00000000E+00  0.00000000E+00  0.00000000E+00
  0.00000000E+00  0.00000000E+00  0.00000000E+00
  0.00000000E+00  0.00000000E+00  0.00000000E+00
  0.00000000E+00  0.00000000E+00  0.00000000E+00
  0.00000000E+00  0.00000000E+00  0.00000000E+00
  0.00000000E+00  0.00000000E+00  0.00000000E+00
  0.00000000E+00  0.00000000E+00  0.00000000E+00
  0.00000000E+00  0.00000000E+00  0.00000000E+00
  0.00000000E+00  0.00000000E+00  0.00000000E+00
  0.00000000E+00  0.00000000E+00  0.00000000E+00
  0.00000000E+00  0.00000000E+00  0.00000000E+00
  0.00000000E+00  0.00000000E+00  0.00000000E+00
  0.00000000E+00  0.00000000E+00  0.00000000E+00
  0.00000000E+00  0.00000000E+00  0.00000000E+00
  0.00000000E+00  0.00000000E+00  0.00000000E+00
