Type_027 Type_127 
1.0
9.5784099999999999e+00 0.0000000000000000e+00 0.0000000000000000e+00 
-4.7892049999999999e+00 8.2951463878999991e+00 0.0000000000000000e+00 
0.0000000000000000e+00 0.0000000000000000e+00 1.9417840000000002e+01 
Type_0 Type_1 
27 27 
Cartesian
   1.8227575775    4.4439165979    1.9341801334
   1.7973757009    4.4923822472    4.6326501496
   1.7973757009    4.4923822472    7.7719301482
  -3.1026834969    7.4922787180    2.9732983822
  -2.9918292943    7.2574310404    5.6790768093
  -3.2611409606    7.4128883317    8.2135851753
   5.6556129365    2.0797516683    1.4245228483
   6.5865807105    1.7273334457    3.5862234705
   6.5865807105    1.7273334457    6.7255034885
   3.0627123971    2.3007548006    1.4933701510
   3.0627123971    2.3007548006    4.6326501496
   3.0627123971    2.3007548006    7.7719301482
  -1.7264925985    4.2572249179    3.5504545580
  -1.7264925981    5.0658035938    5.6790768093
  -1.7264925982    4.7593921321    8.2209481505
   7.8519174051    0.9778918121    1.2812077689
   3.0627124067    7.8308523870    3.5862234705
   3.0627124067    7.8308523870    6.7255034885
   4.3026672152    4.4439165963    1.9341801329
   4.3280490933    4.4923822472    4.6326501496
   4.3280490933    4.4923822472    7.7719301482
  -0.3503016969    7.4922787220    2.9732983812
  -0.4611559019    7.2574310404    5.6790768093
  -0.1918442300    7.4128883352    8.2135851706
   0.4698118630    2.0797516757    1.4245228426
  -0.4611558971    1.7273334457    3.5862234705
  -0.4611558971    1.7273334457    6.7255034885
   4.4619637813    3.2518421997    0.2805082041
   4.6739446353    2.8315943986    3.1392799986
   4.6739446353    2.8315943986    6.2785599972
   4.4873799831    2.9392832728    9.0461372539
  -0.1152603600    5.5966431918    4.1857066583
  -0.1152603600    5.5966431918    7.3249866763
   9.4631496448    0.0665455971    2.0928533389
   9.4631496448    0.0665455971    5.2321333374
   9.3485139717    0.1325035528    8.0282870789
   3.0627123971    5.6223304979    3.1392799986
   3.0627123971    5.6223304979    6.2785599972
   3.0627123974    5.4074672608    9.0457542770
   3.0627124028    0.1376619675    1.6557830626
   3.0627124019    0.0922329032    4.1857066583
   3.0627124019    0.0922329032    7.3249866763
   7.8519174067    2.8572816964    2.0928533389
   7.8519174067    2.8572816964    5.2321333374
   7.8519174054    2.7272981525    8.0325222567
   1.6634610209    3.2518422063    0.2805082005
   1.4514801590    2.8315943986    3.1392799986
   1.4514801590    2.8315943986    6.2785599972
   1.6380448096    2.9392832716    9.0461372531
   6.2406851638    5.5966431918    4.1857066583
   6.2406851638    5.5966431918    7.3249866763
   6.2406851685    0.0665455971    2.0928533389
   6.2406851685    0.0665455971    5.2321333374
   6.3553208397    0.1325035531    8.0282870772
