Type_048 Type_148                       
   1.00000000000000     
     6.2785599999999997    0.0000000000000000    0.0000000000000000
     2.0928533957000002   11.0601955134000001    0.0000000000000000
     0.0000000000000000    0.0000000000000000   29.1568199999999997
   Ty   Ty
    48    48
Direct
  0.2563094379991355  0.0164585909968267  0.1523934869989247
  0.2563094379991355  0.0164585909968267  0.4809070209988633
  0.0063094380010256  0.2664585829996824  0.3166502539988940
  0.0144438961165108  0.2616349284779034  0.6381027590285910
  0.2849741826723005  0.0238390084768909  0.0710514853986126
  0.2563094379991355  0.0164585909968267  0.3941117740000450
  0.0063094380010256  0.2664585829996824  0.2298550070000758
  0.0063094380010256  0.2664585829996824  0.5583685420014959
  0.1651301219836085  0.2230399298286585  0.1134957284367744
  0.1902579379989220  0.2146130849969339  0.4375093980001949
  0.4402579380007481  0.4646130780033815  0.2732526299987441
  0.4402579380007481  0.4646130780033815  0.6017661650001642
  0.7563094379991355  0.0164585909968267  0.1523934869989247
  0.7563094379991355  0.0164585909968267  0.4809070209988633
  0.5063094380010256  0.2664585829996824  0.3166502539988940
  0.5144438961165108  0.2616349284779034  0.6381027590285910
  0.7014382273764923  0.0339827234287711  0.0690099764857734
  0.7563094379991355  0.0164585909968267  0.3941117740000450
  0.5063094380010256  0.2664585829996824  0.2298550070000758
  0.5063094380010256  0.2664585829996824  0.5583685420014959
  0.6799321052720941  0.2215110095505750  0.1164602301519864
  0.6902579379989220  0.2146130849969339  0.4375093980001949
  0.9402579380007481  0.4646130780033815  0.2732526299987441
  0.9402579380007481  0.4646130780033815  0.6017661650001642
  0.2563094380071007  0.5164585909968267  0.1523934869989247
  0.2563094380071007  0.5164585909968267  0.4809070209988633
  0.0063094380089836  0.7664585829996824  0.3166502539988940
  0.0144438961244759  0.7616349284779034  0.6381027590285910
  0.3291597220973230  0.3703048299135290  0.0649022035119060
  0.2563094380071007  0.5164585909968267  0.3941117740000450
  0.0063094380089836  0.7664585829996824  0.2298550070000758
  0.0063094380089836  0.7664585829996824  0.5583685420014959
  0.1891845562236654  0.7977888610386330  0.1603929724434963
  0.1902579380068872  0.7146130849969339  0.4375093980001949
  0.4402579380087133  0.9646130780033815  0.2732526299987441
  0.4402579380087133  0.9646130780033815  0.6017661650001642
  0.7563094380071007  0.5164585909968267  0.1523934869989247
  0.7563094380071007  0.5164585909968267  0.4809070209988633
  0.5063094380089836  0.7664585829996824  0.3166502539988940
  0.5144438961244759  0.7616349284779034  0.6381027590285910
  0.8259135725447493  0.3543645143932110  0.0663628861583661
  0.7563094380071007  0.5164585909968267  0.3941117740000450
  0.5063094380089836  0.7664585829996824  0.2298550070000758
  0.5063094380089836  0.7664585829996824  0.5583685420014959
  0.6912646581331998  0.7971538614501128  0.1608866986866175
  0.6902579380068872  0.7146130849969339  0.4375093980001949
  0.9402579380087133  0.9646130780033815  0.2732526299987441
  0.9402579380087133  0.9646130780033815  0.6017661650001642
  0.4332087781844081  0.1819712044928679  0.0669528112187834
  0.4684041049957912  0.1666175859972228  0.3822484939990005
  0.2184041049976173  0.4166175790036704  0.2179917260009816
  0.2184041049976173  0.4166175790036704  0.5465052609989698
  0.4684041049957912  0.1666175859972228  0.1642567669999693
  0.4684041049957912  0.1666175859972228  0.4927703020013823
  0.2184041049976173  0.4166175790036704  0.3285135350014201
  0.2178561114747737  0.3907416300248983  0.6421740095456201
  0.0525116050000562  0.4142950790018531  0.1089958629987748
  0.0525116050000562  0.4142950790018531  0.4375093980001949
  0.3025116049982302  0.1642950859953984  0.2732526299987441
  0.3025116049982302  0.1642950859953984  0.6017661650001642
  0.9684041049957912  0.1666175859972228  0.3822484939990005
  0.7184041049976173  0.4166175790036704  0.2179917260009816
  0.7184041049976173  0.4166175790036704  0.5465052609989698
  0.9684041049957912  0.1666175859972228  0.1642567669999693
  0.9684041049957912  0.1666175859972228  0.4927703020013823
  0.5750040984862466  0.3902678835442259  0.0217456572150212
  0.7184041049976173  0.4166175790036704  0.3285135350014201
  0.7178561114747737  0.3907416300248983  0.6421740095456201
  0.5525116050000562  0.4142950790018531  0.1089958629987748
  0.5525116050000562  0.4142950790018531  0.4375093980001949
  0.8025116049982302  0.1642950859953984  0.2732526299987441
  0.8025116049982302  0.1642950859953984  0.6017661650001642
  0.4684041050037564  0.6666175859972228  0.3822484939990005
  0.2184041050085952  0.9166175789946323  0.2179917260009816
  0.2184041050085952  0.9166175789946323  0.5465052609989698
  0.4684041050037564  0.6666175859972228  0.1642567669999693
  0.4684041050037564  0.6666175859972228  0.4927703020013823
  0.9372959421614269  0.1594347406122765  0.0674652137715981
  0.2184041050085952  0.9166175789946323  0.3285135350014201
  0.2178561114827318  0.8907416300248983  0.6421740095456201
  0.0525116050080214  0.9142950790018531  0.1089958629987748
  0.0525116050080214  0.9142950790018531  0.4375093980001949
  0.3025116050061953  0.6642950859953984  0.2732526299987441
  0.3025116050061953  0.6642950859953984  0.6017661650001642
  0.9684041050037564  0.6666175859972228  0.3822484939990005
  0.7184041050085952  0.9166175789946323  0.2179917260009816
  0.7184041050085952  0.9166175789946323  0.5465052609989698
  0.9684041050037564  0.6666175859972228  0.1642567669999693
  0.9684041050037564  0.6666175859972228  0.4927703020013823
  0.5091122018131671  0.9745739567208105  0.0213349850120821
  0.7184041050085952  0.9166175789946323  0.3285135350014201
  0.7178561114827318  0.8907416300248983  0.6421740095456201
  0.5525116050080214  0.9142950790018531  0.1089958629987748
  0.5525116050080214  0.9142950790018531  0.4375093980001949
  0.8025116050061953  0.6642950859953984  0.2732526299987441
  0.8025116050061953  0.6642950859953984  0.6017661650001642
 
  0.00000000E+00  0.00000000E+00  0.00000000E+00
  0.00000000E+00  0.00000000E+00  0.00000000E+00
  0.00000000E+00  0.00000000E+00  0.00000000E+00
  0.00000000E+00  0.00000000E+00  0.00000000E+00
  0.00000000E+00  0.00000000E+00  0.00000000E+00
  0.00000000E+00  0.00000000E+00  0.00000000E+00
  0.00000000E+00  0.00000000E+00  0.00000000E+00
  0.00000000E+00  0.00000000E+00  0.00000000E+00
  0.00000000E+00  0.00000000E+00  0.00000000E+00
  0.00000000E+00  0.00000000E+00  0.00000000E+00
  0.00000000E+00  0.00000000E+00  0.00000000E+00
  0.00000000E+00  0.00000000E+00  0.00000000E+00
  0.00000000E+00  0.00000000E+00  0.00000000E+00
  0.00000000E+00  0.00000000E+00  0.00000000E+00
  0.00000000E+00  0.00000000E+00  0.00000000E+00
  0.00000000E+00  0.00000000E+00  0.00000000E+00
  0.00000000E+00  0.00000000E+00  0.00000000E+00
  0.00000000E+00  0.00000000E+00  0.00000000E+00
  0.00000000E+00  0.00000000E+00  0.00000000E+00
  0.00000000E+00  0.00000000E+00  0.00000000E+00
  0.00000000E+00  0.00000000E+00  0.00000000E+00
  0.00000000E+00  0.00000000E+00  0.00000000E+00
  0.00000000E+00  0.00000000E+00  0.00000000E+00
  0.00000000E+00  0.00000000E+00  0.00000000E+00
  0.00000000E+00  0.00000000E+00  0.00000000E+00
  0.00000000E+00  0.00000000E+00  0.00000000E+00
  0.00000000E+00  0.00000000E+00  0.00000000E+00
  0.00000000E+00  0.00000000E+00  0.00000000E+00
  0.00000000E+00  0.00000000E+00  0.00000000E+00
  0.00000000E+00  0.00000000E+00  0.00000000E+00
  0.00000000E+00  0.00000000E+00  0.00000000E+00
  0.00000000E+00  0.00000000E+00  0.00000000E+00
  0.00000000E+00  0.00000000E+00  0.00000000E+00
  0.00000000E+00  0.00000000E+00  0.00000000E+00
  0.00000000E+00  0.00000000E+00  0.00000000E+00
  0.00000000E+00  0.00000000E+00  0.00000000E+00
  0.00000000E+00  0.00000000E+00  0.00000000E+00
  0.00000000E+00  0.00000000E+00  0.00000000E+00
  0.00000000E+00  0.00000000E+00  0.00000000E+00
  0.00000000E+00  0.00000000E+00  0.00000000E+00
  0.00000000E+00  0.00000000E+00  0.00000000E+00
  0.00000000E+00  0.00000000E+00  0.00000000E+00
  0.00000000E+00  0.00000000E+00  0.00000000E+00
  0.00000000E+00  0.00000000E+00  0.00000000E+00
  0.00000000E+00  0.00000000E+00  0.00000000E+00
  0.00000000E+00  0.00000000E+00  0.00000000E+00
  0.00000000E+00  0.00000000E+00  0.00000000E+00
  0.00000000E+00  0.00000000E+00  0.00000000E+00
  0.00000000E+00  0.00000000E+00  0.00000000E+00
  0.00000000E+00  0.00000000E+00  0.00000000E+00
  0.00000000E+00  0.00000000E+00  0.00000000E+00
  0.00000000E+00  0.00000000E+00  0.00000000E+00
  0.00000000E+00  0.00000000E+00  0.00000000E+00
  0.00000000E+00  0.00000000E+00  0.00000000E+00
  0.00000000E+00  0.00000000E+00  0.00000000E+00
  0.00000000E+00  0.00000000E+00  0.00000000E+00
  0.00000000E+00  0.00000000E+00  0.00000000E+00
  0.00000000E+00  0.00000000E+00  0.00000000E+00
  0.00000000E+00  0.00000000E+00  0.00000000E+00
  0.00000000E+00  0.00000000E+00  0.00000000E+00
  0.00000000E+00  0.00000000E+00  0.00000000E+00
  0.00000000E+00  0.00000000E+00  0.00000000E+00
  0.00000000E+00  0.00000000E+00  0.00000000E+00
  0.00000000E+00  0.00000000E+00  0.00000000E+00
  0.00000000E+00  0.00000000E+00  0.00000000E+00
  0.00000000E+00  0.00000000E+00  0.00000000E+00
  0.00000000E+00  0.00000000E+00  0.00000000E+00
  0.00000000E+00  0.00000000E+00  0.00000000E+00
  0.00000000E+00  0.00000000E+00  0.00000000E+00
  0.00000000E+00  0.00000000E+00  0.00000000E+00
  0.00000000E+00  0.00000000E+00  0.00000000E+00
  0.00000000E+00  0.00000000E+00  0.00000000E+00
  0.00000000E+00  0.00000000E+00  0.00000000E+00
  0.00000000E+00  0.00000000E+00  0.00000000E+00
  0.00000000E+00  0.00000000E+00  0.00000000E+00
  0.00000000E+00  0.00000000E+00  0.00000000E+00
  0.00000000E+00  0.00000000E+00  0.00000000E+00
  0.00000000E+00  0.00000000E+00  0.00000000E+00
  0.00000000E+00  0.00000000E+00  0.00000000E+00
  0.00000000E+00  0.00000000E+00  0.00000000E+00
  0.00000000E+00  0.00000000E+00  0.00000000E+00
  0.00000000E+00  0.00000000E+00  0.00000000E+00
  0.00000000E+00  0.00000000E+00  0.00000000E+00
  0.00000000E+00  0.00000000E+00  0.00000000E+00
  0.00000000E+00  0.00000000E+00  0.00000000E+00
  0.00000000E+00  0.00000000E+00  0.00000000E+00
  0.00000000E+00  0.00000000E+00  0.00000000E+00
  0.00000000E+00  0.00000000E+00  0.00000000E+00
  0.00000000E+00  0.00000000E+00  0.00000000E+00
  0.00000000E+00  0.00000000E+00  0.00000000E+00
  0.00000000E+00  0.00000000E+00  0.00000000E+00
  0.00000000E+00  0.00000000E+00  0.00000000E+00
  0.00000000E+00  0.00000000E+00  0.00000000E+00
  0.00000000E+00  0.00000000E+00  0.00000000E+00
  0.00000000E+00  0.00000000E+00  0.00000000E+00
  0.00000000E+00  0.00000000E+00  0.00000000E+00
