Structure 1 made from -121-1.xsd file   
   1.00000000000000     
     9.4251025535000004    3.5732980426999998    0.0000000000000000
     0.0000000000000000   10.0797329848999997    0.0000000000000000
     0.0000000000000000    0.0000000000000000   20.4938792702999990
   Ni   S 
    36    36
Direct
  0.3743321409999965  0.7513622060000031  0.0943943750000003
  0.5246006530000002  0.6010936939999993  0.2225059129999991
  0.6748691649999969  0.4508251809999990  0.3506174509999980
  0.8251376779999973  0.3005566690000023  0.4787289889999968
  0.6074864659999974  0.1848745480000034  0.0089866830000034
  0.7577549780000012  0.0346060350000030  0.1370982210000022
  0.0582920029999983  0.7340690110000025  0.3933212970000000
  0.9080234910000016  0.8843375229999992  0.2652097590000011
  0.1411778160000026  0.3178498649999995  0.1798020669999971
  0.2914463279999993  0.1675813519999991  0.3079136050000031
  0.4417148400000031  0.0173128400000024  0.4360251430000019
  0.9909093030000022  0.4681183770000032  0.0516905289999983
  0.0099399930000033  0.1157543540000034  0.4110333149999974
  0.5591344549999988  0.5665598909999972  0.0266987010000008
  0.7094029679999991  0.4162913790000005  0.1548102389999997
  0.8596714800000029  0.2660228669999967  0.2829217769999985
  0.0928258049999968  0.6995352080000004  0.1975140850000017
  0.2430943179999971  0.5492666959999966  0.3256256230000005
  0.3933628300000009  0.3989981830000033  0.4537371609999994
  0.9425572930000001  0.8498037210000007  0.0694025470000028
  0.3259801299999978  0.1330475500000006  0.1121063929999977
  0.4762486429999981  0.9827790370000002  0.2402179309999966
  0.6265171550000019  0.8325105250000036  0.3683294690000025
  0.7767856680000023  0.6822420129999998  0.4964410070000014
  0.0496418350000027  0.3402585119999983  0.4448811520000007
  0.5988362980000019  0.7910640489999992  0.0605465379999970
  0.7491048099999986  0.6407955359999988  0.1886580760000029
  0.8993733229999989  0.4905270240000021  0.3167696140000018
  0.9822591360000033  0.0743078779999991  0.1032503839999990
  0.1325276479999999  0.9240393660000024  0.2313619219999978
  0.2827961599999966  0.7737708530000020  0.3594734599999967
  0.4330646729999970  0.6235023409999982  0.4875849980000027
  0.2154134609999971  0.5078202199999993  0.0178426920000021
  0.3656819730000009  0.3575517069999989  0.1459542300000010
  0.5159504849999976  0.2072831950000023  0.2740657679999998
  0.6662189979999980  0.0570146820000019  0.4021773059999987
  0.0638215669999980  0.2620847800000021  0.3408373310000030
  0.2140900790000018  0.1118162670000018  0.4689488690000019
  0.7632845420000010  0.5626218049999991  0.0846142549999982
  0.9135530550000013  0.4123532919999988  0.2127257929999971
  0.1467073800000023  0.8458656339999990  0.1273181010000002
  0.2969758919999990  0.6955971209999987  0.2554296389999990
  0.4472444040000028  0.5453286090000020  0.3835411769999979
  0.5975129170000031  0.3950600969999982  0.5116527149999968
  0.3798617050000033  0.2793779750000027  0.0419104090000033
  0.5301302170000000  0.1291094629999989  0.1700219470000022
  0.6803987300000003  0.9788409510000022  0.2981334850000010
  0.8306672419999970  0.8285724380000019  0.4262450229999999
  0.3776957010000004  0.9482106459999997  0.0427038460000020
  0.5279642129999971  0.7979421329999994  0.1708153840000008
  0.6782327259999974  0.6476736210000027  0.2989269219999997
  0.8285012380000012  0.4974051089999989  0.4270384599999986
  0.7611185390000017  0.2314544749999996  0.0854076919999969
  0.9113870509999984  0.0811859630000029  0.2135192300000028
  0.0616555630000022  0.9309174500000026  0.3416307680000017
  0.2119240760000025  0.7806489379999988  0.4697423060000006
  0.1445413759999994  0.5146983039999995  0.1281115379999989
  0.2948098880000032  0.3644297920000028  0.2562230759999977
  0.4450784010000035  0.2141612790000025  0.3843346139999966
  0.9942728640000027  0.6649668169999998  0.0000000000000000
  0.4774093779999973  0.5120669690000028  0.1277148189999977
  0.6276778900000011  0.3617984569999990  0.2558263569999966
  0.7779464030000014  0.2115299439999987  0.3839378950000025
  0.9282149149999981  0.0612614320000020  0.5120494330000014
  0.0111007280000024  0.6450422859999989  0.2985302029999986
  0.1613692399999991  0.4947737729999986  0.4266417409999974
  0.7105637029999983  0.9455793110000030  0.0423071270000008
  0.8608322150000021  0.7953107980000027  0.1704186649999997
  0.0939865400000031  0.2288231400000029  0.0850109730000028
  0.2442550530000034  0.0785546270000026  0.2131225110000017
  0.3945235650000001  0.9282861149999988  0.3412340490000005
  0.5447920780000004  0.7780176030000021  0.4693455869999994
 
  0.00000000E+00  0.00000000E+00  0.00000000E+00
  0.00000000E+00  0.00000000E+00  0.00000000E+00
  0.00000000E+00  0.00000000E+00  0.00000000E+00
  0.00000000E+00  0.00000000E+00  0.00000000E+00
  0.00000000E+00  0.00000000E+00  0.00000000E+00
  0.00000000E+00  0.00000000E+00  0.00000000E+00
  0.00000000E+00  0.00000000E+00  0.00000000E+00
  0.00000000E+00  0.00000000E+00  0.00000000E+00
  0.00000000E+00  0.00000000E+00  0.00000000E+00
  0.00000000E+00  0.00000000E+00  0.00000000E+00
  0.00000000E+00  0.00000000E+00  0.00000000E+00
  0.00000000E+00  0.00000000E+00  0.00000000E+00
  0.00000000E+00  0.00000000E+00  0.00000000E+00
  0.00000000E+00  0.00000000E+00  0.00000000E+00
  0.00000000E+00  0.00000000E+00  0.00000000E+00
  0.00000000E+00  0.00000000E+00  0.00000000E+00
  0.00000000E+00  0.00000000E+00  0.00000000E+00
  0.00000000E+00  0.00000000E+00  0.00000000E+00
  0.00000000E+00  0.00000000E+00  0.00000000E+00
  0.00000000E+00  0.00000000E+00  0.00000000E+00
  0.00000000E+00  0.00000000E+00  0.00000000E+00
  0.00000000E+00  0.00000000E+00  0.00000000E+00
  0.00000000E+00  0.00000000E+00  0.00000000E+00
  0.00000000E+00  0.00000000E+00  0.00000000E+00
  0.00000000E+00  0.00000000E+00  0.00000000E+00
  0.00000000E+00  0.00000000E+00  0.00000000E+00
  0.00000000E+00  0.00000000E+00  0.00000000E+00
  0.00000000E+00  0.00000000E+00  0.00000000E+00
  0.00000000E+00  0.00000000E+00  0.00000000E+00
  0.00000000E+00  0.00000000E+00  0.00000000E+00
  0.00000000E+00  0.00000000E+00  0.00000000E+00
  0.00000000E+00  0.00000000E+00  0.00000000E+00
  0.00000000E+00  0.00000000E+00  0.00000000E+00
  0.00000000E+00  0.00000000E+00  0.00000000E+00
  0.00000000E+00  0.00000000E+00  0.00000000E+00
  0.00000000E+00  0.00000000E+00  0.00000000E+00
  0.00000000E+00  0.00000000E+00  0.00000000E+00
  0.00000000E+00  0.00000000E+00  0.00000000E+00
  0.00000000E+00  0.00000000E+00  0.00000000E+00
  0.00000000E+00  0.00000000E+00  0.00000000E+00
  0.00000000E+00  0.00000000E+00  0.00000000E+00
  0.00000000E+00  0.00000000E+00  0.00000000E+00
  0.00000000E+00  0.00000000E+00  0.00000000E+00
  0.00000000E+00  0.00000000E+00  0.00000000E+00
  0.00000000E+00  0.00000000E+00  0.00000000E+00
  0.00000000E+00  0.00000000E+00  0.00000000E+00
  0.00000000E+00  0.00000000E+00  0.00000000E+00
  0.00000000E+00  0.00000000E+00  0.00000000E+00
  0.00000000E+00  0.00000000E+00  0.00000000E+00
  0.00000000E+00  0.00000000E+00  0.00000000E+00
  0.00000000E+00  0.00000000E+00  0.00000000E+00
  0.00000000E+00  0.00000000E+00  0.00000000E+00
  0.00000000E+00  0.00000000E+00  0.00000000E+00
  0.00000000E+00  0.00000000E+00  0.00000000E+00
  0.00000000E+00  0.00000000E+00  0.00000000E+00
  0.00000000E+00  0.00000000E+00  0.00000000E+00
  0.00000000E+00  0.00000000E+00  0.00000000E+00
  0.00000000E+00  0.00000000E+00  0.00000000E+00
  0.00000000E+00  0.00000000E+00  0.00000000E+00
  0.00000000E+00  0.00000000E+00  0.00000000E+00
  0.00000000E+00  0.00000000E+00  0.00000000E+00
  0.00000000E+00  0.00000000E+00  0.00000000E+00
  0.00000000E+00  0.00000000E+00  0.00000000E+00
  0.00000000E+00  0.00000000E+00  0.00000000E+00
  0.00000000E+00  0.00000000E+00  0.00000000E+00
  0.00000000E+00  0.00000000E+00  0.00000000E+00
  0.00000000E+00  0.00000000E+00  0.00000000E+00
  0.00000000E+00  0.00000000E+00  0.00000000E+00
  0.00000000E+00  0.00000000E+00  0.00000000E+00
  0.00000000E+00  0.00000000E+00  0.00000000E+00
  0.00000000E+00  0.00000000E+00  0.00000000E+00
  0.00000000E+00  0.00000000E+00  0.00000000E+00
