Structure 1 made from -211-4.xsd file   
   1.00000000000000     
     9.4251025535000004    3.5732980426999998    0.0000000000000000
     0.0000000000000000   10.0797329848999997    0.0000000000000000
     0.0000000000000000    0.0000000000000000   20.3205155969000018
   Ni   S 
    36    36
Direct
  0.3970588919999969  0.7949517890000024  0.1113413890000032
  0.5473274040000007  0.6446832769999986  0.2405459060000013
  0.6975959170000010  0.4944147639999983  0.3697504220000027
  0.8478644289999977  0.3441462520000016  0.4989549390000008
  0.1138150629999970  0.4115289510000011  0.1544095610000014
  0.2640835750000008  0.2612604389999973  0.2836140779999994
  0.4143520880000011  0.1109919270000006  0.4128185949999974
  0.9635465499999967  0.5617974640000014  0.0252050449999999
  0.1311082579999976  0.7275690889999993  0.4558867670000026
  0.6803027209999968  0.1783746260000001  0.0682732169999980
  0.8305712339999971  0.0281061140000034  0.1974777340000031
  0.9808397460000009  0.8778376019999996  0.3266822499999975
  0.3573570490000009  0.5704476319999969  0.0772047809999989
  0.5076255620000012  0.4201791189999966  0.2064092970000004
  0.6578940739999979  0.2699106069999999  0.3356138139999985
  0.8081625869999982  0.1196420939999996  0.4648183299999999
  0.0741132200000010  0.1870247940000027  0.1202729529999971
  0.2243817330000013  0.0367562819999989  0.2494774689999986
  0.3746502449999980  0.8864877689999986  0.3786819859999966
  0.5249187570000018  0.7362192570000019  0.5078865030000017
  0.0914064159999981  0.5030649320000009  0.4217501580000018
  0.6406008789999973  0.9538704690000017  0.0341366090000008
  0.7908693910000011  0.8036019569999979  0.1633411250000023
  0.9411379029999978  0.6533334439999976  0.2925456420000003
  0.0326667439999966  0.1593439370000027  0.4306817220000028
  0.5818612070000029  0.6101494739999964  0.0430681719999981
  0.7321297189999996  0.4598809619999997  0.1722726890000033
  0.8823982319999999  0.3096124489999994  0.3014772049999976
  0.2986173780000030  0.2267266369999987  0.0861363440000034
  0.4488858899999997  0.0764581239999984  0.2153408610000014
  0.5991544020000035  0.9261896120000017  0.3445453779999994
  0.7494229149999967  0.7759210990000014  0.4737498940000009
  0.0153735479999995  0.8433037989999974  0.1292045169999980
  0.1656420609999998  0.6930352870000007  0.2584090329999995
  0.3159105729999965  0.5427667740000004  0.3876135499999975
  0.8651050360000028  0.9935723119999977  0.0000000000000000
  0.0366048309999982  0.9551938500000006  0.4890913799999979
  0.5857992939999974  0.4059993870000014  0.1014778300000003
  0.7360678060000012  0.2557308749999976  0.2306823469999983
  0.8863363179999979  0.1054623630000009  0.3598868629999998
  0.1522869519999972  0.1728450620000004  0.0153414859999970
  0.3025554640000010  0.0225765499999966  0.1445460019999985
  0.4528239770000013  0.8723080370000034  0.2737505190000036
  0.6030924889999980  0.7220395249999996  0.4029550360000016
  0.0193116350000011  0.6391537120000024  0.1876141750000002
  0.1695801480000014  0.4888851999999986  0.3168186910000017
  0.3198486599999981  0.3386166880000019  0.4460232079999997
  0.8690431229999973  0.7894222250000027  0.0584096580000022
  0.4860856170000005  0.8421430639999983  0.0157415890000010
  0.6363541289999972  0.6918745520000016  0.1449461059999990
  0.7866226419999975  0.5416060390000013  0.2741506220000005
  0.9368911540000013  0.3913375269999975  0.4033551389999985
  0.2028417880000006  0.4587202270000006  0.0588097609999991
  0.3531102999999973  0.3084517140000003  0.1880142779999971
  0.5033788120000011  0.1581832019999965  0.3172187950000023
  0.6536473250000014  0.0079146890000032  0.4464233109999967
  0.0698664709999974  0.9250288770000026  0.2310824500000024
  0.2201349830000012  0.7747603640000023  0.3602869670000004
  0.3704034960000016  0.6244918519999985  0.4894914830000019
  0.9195979579999971  0.0752973889999993  0.1018779340000009
  0.2002104520000003  0.7915882280000019  0.0592098649999997
  0.3504789650000006  0.6413197159999982  0.1884143810000012
  0.5007474769999973  0.4910512040000015  0.3176188979999992
  0.6510159899999977  0.3407826910000011  0.4468234140000007
  0.0672351360000008  0.2578968790000005  0.2314825529999993
  0.2175036479999974  0.1076283660000001  0.3606870699999973
  0.3677721600000012  0.9573598540000035  0.4898915870000025
  0.9169666230000004  0.4081653909999972  0.1022780369999978
  0.4834542819999967  0.1750110660000033  0.0161416930000016
  0.6337227940000005  0.0247425539999995  0.1453462090000031
  0.7839913059999972  0.8744740409999991  0.2745507260000011
  0.9342598189999975  0.7242055290000025  0.4037552420000026
 
  0.00000000E+00  0.00000000E+00  0.00000000E+00
  0.00000000E+00  0.00000000E+00  0.00000000E+00
  0.00000000E+00  0.00000000E+00  0.00000000E+00
  0.00000000E+00  0.00000000E+00  0.00000000E+00
  0.00000000E+00  0.00000000E+00  0.00000000E+00
  0.00000000E+00  0.00000000E+00  0.00000000E+00
  0.00000000E+00  0.00000000E+00  0.00000000E+00
  0.00000000E+00  0.00000000E+00  0.00000000E+00
  0.00000000E+00  0.00000000E+00  0.00000000E+00
  0.00000000E+00  0.00000000E+00  0.00000000E+00
  0.00000000E+00  0.00000000E+00  0.00000000E+00
  0.00000000E+00  0.00000000E+00  0.00000000E+00
  0.00000000E+00  0.00000000E+00  0.00000000E+00
  0.00000000E+00  0.00000000E+00  0.00000000E+00
  0.00000000E+00  0.00000000E+00  0.00000000E+00
  0.00000000E+00  0.00000000E+00  0.00000000E+00
  0.00000000E+00  0.00000000E+00  0.00000000E+00
  0.00000000E+00  0.00000000E+00  0.00000000E+00
  0.00000000E+00  0.00000000E+00  0.00000000E+00
  0.00000000E+00  0.00000000E+00  0.00000000E+00
  0.00000000E+00  0.00000000E+00  0.00000000E+00
  0.00000000E+00  0.00000000E+00  0.00000000E+00
  0.00000000E+00  0.00000000E+00  0.00000000E+00
  0.00000000E+00  0.00000000E+00  0.00000000E+00
  0.00000000E+00  0.00000000E+00  0.00000000E+00
  0.00000000E+00  0.00000000E+00  0.00000000E+00
  0.00000000E+00  0.00000000E+00  0.00000000E+00
  0.00000000E+00  0.00000000E+00  0.00000000E+00
  0.00000000E+00  0.00000000E+00  0.00000000E+00
  0.00000000E+00  0.00000000E+00  0.00000000E+00
  0.00000000E+00  0.00000000E+00  0.00000000E+00
  0.00000000E+00  0.00000000E+00  0.00000000E+00
  0.00000000E+00  0.00000000E+00  0.00000000E+00
  0.00000000E+00  0.00000000E+00  0.00000000E+00
  0.00000000E+00  0.00000000E+00  0.00000000E+00
  0.00000000E+00  0.00000000E+00  0.00000000E+00
  0.00000000E+00  0.00000000E+00  0.00000000E+00
  0.00000000E+00  0.00000000E+00  0.00000000E+00
  0.00000000E+00  0.00000000E+00  0.00000000E+00
  0.00000000E+00  0.00000000E+00  0.00000000E+00
  0.00000000E+00  0.00000000E+00  0.00000000E+00
  0.00000000E+00  0.00000000E+00  0.00000000E+00
  0.00000000E+00  0.00000000E+00  0.00000000E+00
  0.00000000E+00  0.00000000E+00  0.00000000E+00
  0.00000000E+00  0.00000000E+00  0.00000000E+00
  0.00000000E+00  0.00000000E+00  0.00000000E+00
  0.00000000E+00  0.00000000E+00  0.00000000E+00
  0.00000000E+00  0.00000000E+00  0.00000000E+00
  0.00000000E+00  0.00000000E+00  0.00000000E+00
  0.00000000E+00  0.00000000E+00  0.00000000E+00
  0.00000000E+00  0.00000000E+00  0.00000000E+00
  0.00000000E+00  0.00000000E+00  0.00000000E+00
  0.00000000E+00  0.00000000E+00  0.00000000E+00
  0.00000000E+00  0.00000000E+00  0.00000000E+00
  0.00000000E+00  0.00000000E+00  0.00000000E+00
  0.00000000E+00  0.00000000E+00  0.00000000E+00
  0.00000000E+00  0.00000000E+00  0.00000000E+00
  0.00000000E+00  0.00000000E+00  0.00000000E+00
  0.00000000E+00  0.00000000E+00  0.00000000E+00
  0.00000000E+00  0.00000000E+00  0.00000000E+00
  0.00000000E+00  0.00000000E+00  0.00000000E+00
  0.00000000E+00  0.00000000E+00  0.00000000E+00
  0.00000000E+00  0.00000000E+00  0.00000000E+00
  0.00000000E+00  0.00000000E+00  0.00000000E+00
  0.00000000E+00  0.00000000E+00  0.00000000E+00
  0.00000000E+00  0.00000000E+00  0.00000000E+00
  0.00000000E+00  0.00000000E+00  0.00000000E+00
  0.00000000E+00  0.00000000E+00  0.00000000E+00
  0.00000000E+00  0.00000000E+00  0.00000000E+00
  0.00000000E+00  0.00000000E+00  0.00000000E+00
  0.00000000E+00  0.00000000E+00  0.00000000E+00
  0.00000000E+00  0.00000000E+00  0.00000000E+00
