Structure 5 made from 021-5.xsd file    
   1.00000000000000     
    11.2351097479999993    3.6905792347999999    0.0000000000000000
     0.0000000000000000   11.8257374458999998    0.0000000000000000
     0.0000000000000000    0.0000000000000000   19.1935896624999991
   Ni   S 
    36    36
Direct
  0.9240882269999986  0.1938175470000019  0.1142595279999981
  0.0606737339999981  0.0572320389999987  0.2446736240000007
  0.1972592409999976  0.9206465170000016  0.3750877200000033
  0.1161207979999972  0.1338879719999966  0.0453471550000017
  0.2527063049999967  0.9973024640000006  0.1757612509999973
  0.3892918120000033  0.8607169420000034  0.3061753469999999
  0.0561912229999990  0.3259205430000023  0.1142595279999981
  0.1927767299999985  0.1893350349999992  0.2446736240000007
  0.3293622369999980  0.0527495130000020  0.3750877200000033
  0.4240882269999986  0.1938175470000019  0.1142595279999981
  0.5606737339999981  0.0572320389999987  0.2446736240000007
  0.6972592409999976  0.9206465170000016  0.3750877200000033
  0.6161207979999972  0.1338879719999966  0.0453471550000017
  0.7527063049999967  0.9973024640000006  0.1757612509999973
  0.8892918120000033  0.8607169420000034  0.3061753469999999
  0.5561912229999990  0.3259205430000023  0.1142595279999981
  0.6927767299999985  0.1893350349999992  0.2446736240000007
  0.8293622369999980  0.0527495130000020  0.3750877200000033
  0.9240882269999986  0.6938175470000019  0.1142595279999981
  0.0606737339999981  0.5572320389999987  0.2446736240000007
  0.1972592409999976  0.4206465170000016  0.3750877200000033
  0.1161207979999972  0.6338879719999966  0.0453471550000017
  0.2527063049999967  0.4973024640000006  0.1757612509999973
  0.3892918120000033  0.3607169420000034  0.3061753469999999
  0.0561912229999990  0.8259205430000023  0.1142595279999981
  0.1927767299999985  0.6893350349999992  0.2446736240000007
  0.3293622369999980  0.5527495130000020  0.3750877200000033
  0.4240882269999986  0.6938175470000019  0.1142595279999981
  0.5606737339999981  0.5572320389999987  0.2446736240000007
  0.6972592409999976  0.4206465170000016  0.3750877200000033
  0.6161207979999972  0.6338879719999966  0.0453471550000017
  0.7527063049999967  0.4973024640000006  0.1757612509999973
  0.8892918120000033  0.3607169420000034  0.3061753469999999
  0.5561912229999990  0.8259205430000023  0.1142595279999981
  0.6927767299999985  0.6893350349999992  0.2446736240000007
  0.8293622369999980  0.5527495130000020  0.3750877200000033
  0.1047397250000017  0.3134840250000011  0.0000000000000000
  0.2413252469999989  0.1768985180000016  0.1304140960000026
  0.3779107539999984  0.0403130099999984  0.2608281919999982
  0.8602126589999983  0.3897960950000012  0.0877504290000033
  0.9967981810000026  0.2532105880000017  0.2181645249999988
  0.2699691959999981  0.9800395589999980  0.4789927169999970
  0.9365247300000021  0.1452690300000015  0.0000000000000000
  0.0731102519999993  0.0086835230000020  0.1304140960000026
  0.2096957589999988  0.8720980149999988  0.2608281919999982
  0.6047397250000017  0.3134840250000011  0.0000000000000000
  0.7413252469999989  0.1768985180000016  0.1304140960000026
  0.8779107539999984  0.0403130099999984  0.2608281919999982
  0.0144962609999979  0.9037274880000012  0.3912422880000008
  0.4967981810000026  0.2532105880000017  0.2181645249999988
  0.6333836880000021  0.1166250810000022  0.3485786210000015
  0.4365247300000021  0.1452690300000015  0.0000000000000000
  0.5731102519999993  0.0086835230000020  0.1304140960000026
  0.7096957589999988  0.8720980149999988  0.2608281919999982
  0.1047397250000017  0.8134840250000011  0.0000000000000000
  0.2413252469999989  0.6768985180000016  0.1304140960000026
  0.3779107539999984  0.5403130099999984  0.2608281919999982
  0.8602126589999983  0.8897960950000012  0.0877504290000033
  0.9967981810000026  0.7532105880000017  0.2181645249999988
  0.9365247300000021  0.6452690300000015  0.0000000000000000
  0.0731102519999993  0.5086835230000020  0.1304140960000026
  0.2096957589999988  0.3720980149999988  0.2608281919999982
  0.3462812659999983  0.2355124930000017  0.3912422880000008
  0.6047397250000017  0.8134840250000011  0.0000000000000000
  0.7413252469999989  0.6768985180000016  0.1304140960000026
  0.8779107539999984  0.5403130099999984  0.2608281919999982
  0.3602126589999983  0.8897960950000012  0.0877504290000033
  0.4967981810000026  0.7532105880000017  0.2181645249999988
  0.6333836880000021  0.6166250810000022  0.3485786210000015
  0.4365247300000021  0.6452690300000015  0.0000000000000000
  0.5731102519999993  0.5086835230000020  0.1304140960000026
  0.7096957589999988  0.3720980149999988  0.2608281919999982
 
  0.00000000E+00  0.00000000E+00  0.00000000E+00
  0.00000000E+00  0.00000000E+00  0.00000000E+00
  0.00000000E+00  0.00000000E+00  0.00000000E+00
  0.00000000E+00  0.00000000E+00  0.00000000E+00
  0.00000000E+00  0.00000000E+00  0.00000000E+00
  0.00000000E+00  0.00000000E+00  0.00000000E+00
  0.00000000E+00  0.00000000E+00  0.00000000E+00
  0.00000000E+00  0.00000000E+00  0.00000000E+00
  0.00000000E+00  0.00000000E+00  0.00000000E+00
  0.00000000E+00  0.00000000E+00  0.00000000E+00
  0.00000000E+00  0.00000000E+00  0.00000000E+00
  0.00000000E+00  0.00000000E+00  0.00000000E+00
  0.00000000E+00  0.00000000E+00  0.00000000E+00
  0.00000000E+00  0.00000000E+00  0.00000000E+00
  0.00000000E+00  0.00000000E+00  0.00000000E+00
  0.00000000E+00  0.00000000E+00  0.00000000E+00
  0.00000000E+00  0.00000000E+00  0.00000000E+00
  0.00000000E+00  0.00000000E+00  0.00000000E+00
  0.00000000E+00  0.00000000E+00  0.00000000E+00
  0.00000000E+00  0.00000000E+00  0.00000000E+00
  0.00000000E+00  0.00000000E+00  0.00000000E+00
  0.00000000E+00  0.00000000E+00  0.00000000E+00
  0.00000000E+00  0.00000000E+00  0.00000000E+00
  0.00000000E+00  0.00000000E+00  0.00000000E+00
  0.00000000E+00  0.00000000E+00  0.00000000E+00
  0.00000000E+00  0.00000000E+00  0.00000000E+00
  0.00000000E+00  0.00000000E+00  0.00000000E+00
  0.00000000E+00  0.00000000E+00  0.00000000E+00
  0.00000000E+00  0.00000000E+00  0.00000000E+00
  0.00000000E+00  0.00000000E+00  0.00000000E+00
  0.00000000E+00  0.00000000E+00  0.00000000E+00
  0.00000000E+00  0.00000000E+00  0.00000000E+00
  0.00000000E+00  0.00000000E+00  0.00000000E+00
  0.00000000E+00  0.00000000E+00  0.00000000E+00
  0.00000000E+00  0.00000000E+00  0.00000000E+00
  0.00000000E+00  0.00000000E+00  0.00000000E+00
  0.00000000E+00  0.00000000E+00  0.00000000E+00
  0.00000000E+00  0.00000000E+00  0.00000000E+00
  0.00000000E+00  0.00000000E+00  0.00000000E+00
  0.00000000E+00  0.00000000E+00  0.00000000E+00
  0.00000000E+00  0.00000000E+00  0.00000000E+00
  0.00000000E+00  0.00000000E+00  0.00000000E+00
  0.00000000E+00  0.00000000E+00  0.00000000E+00
  0.00000000E+00  0.00000000E+00  0.00000000E+00
  0.00000000E+00  0.00000000E+00  0.00000000E+00
  0.00000000E+00  0.00000000E+00  0.00000000E+00
  0.00000000E+00  0.00000000E+00  0.00000000E+00
  0.00000000E+00  0.00000000E+00  0.00000000E+00
  0.00000000E+00  0.00000000E+00  0.00000000E+00
  0.00000000E+00  0.00000000E+00  0.00000000E+00
  0.00000000E+00  0.00000000E+00  0.00000000E+00
  0.00000000E+00  0.00000000E+00  0.00000000E+00
  0.00000000E+00  0.00000000E+00  0.00000000E+00
  0.00000000E+00  0.00000000E+00  0.00000000E+00
  0.00000000E+00  0.00000000E+00  0.00000000E+00
  0.00000000E+00  0.00000000E+00  0.00000000E+00
  0.00000000E+00  0.00000000E+00  0.00000000E+00
  0.00000000E+00  0.00000000E+00  0.00000000E+00
  0.00000000E+00  0.00000000E+00  0.00000000E+00
  0.00000000E+00  0.00000000E+00  0.00000000E+00
  0.00000000E+00  0.00000000E+00  0.00000000E+00
  0.00000000E+00  0.00000000E+00  0.00000000E+00
  0.00000000E+00  0.00000000E+00  0.00000000E+00
  0.00000000E+00  0.00000000E+00  0.00000000E+00
  0.00000000E+00  0.00000000E+00  0.00000000E+00
  0.00000000E+00  0.00000000E+00  0.00000000E+00
  0.00000000E+00  0.00000000E+00  0.00000000E+00
  0.00000000E+00  0.00000000E+00  0.00000000E+00
  0.00000000E+00  0.00000000E+00  0.00000000E+00
  0.00000000E+00  0.00000000E+00  0.00000000E+00
  0.00000000E+00  0.00000000E+00  0.00000000E+00
  0.00000000E+00  0.00000000E+00  0.00000000E+00
