Type_037 Type_137 
1.0
1.6884694054200001e+01 0.0000000000000000e+00 0.0000000000000000e+00 
0.0000000000000000e+00 9.5784099999999999e+00 0.0000000000000000e+00 
0.0000000000000000e+00 0.0000000000000000e+00 1.6197619147600001e+01 
Type_0 Type_1 
37 37 
Cartesian
   1.7369906618    8.0974226511    4.1537386645
   1.6807120367    8.8448295298    1.9497492390
   9.8312243663    4.0556245298    3.4920210149
  10.5631997178    3.4873914114    1.3132045655
   4.0084365668    4.0556245298    4.5202022096
   4.5729688426    4.0303224262    1.7167326871
  12.0187361066    6.9475998943    4.8351407444
  12.7169945207    8.8129389764    3.2321070360
   6.9198304750    8.8448295298    4.0061116123
   7.4717830772    8.7368048489    1.3472944900
  16.0208255979    3.3014329602    4.7555911458
  15.6540121827    4.0556245298    2.4638398364
   6.3634789707    5.3006212841    5.0205593745
   7.6778101065    5.3209612260    3.0845435679
   7.3650244000    5.3215525943    0.7542344033
  15.7043032017    0.6143510966    4.1710571822
  16.4672724842    0.4944748741    1.7168703176
   1.8550223070    5.3209612260    4.1127247464
   2.1350862293    5.3131501301    1.4779120389
   9.2014759174    0.6968183765    4.5257230121
  10.5892040147    0.5317562260    2.5704529706
   4.7664161983    0.5317562260    3.5986341491
   5.0324049785    0.5324876916    0.9822536123
  12.0307899922    4.7414231532    3.9604568798
  13.5005979229    5.3209612260    2.0563623732
   1.2040230073    1.8548334635    4.5973518756
   1.6807120367    1.7970929222    1.9497492390
   9.8312243663    6.5862979222    3.4920210149
  10.5356773804    7.1016082193    1.2457708865
   4.0084365668    6.5862979222    4.5202022096
   4.5905071264    6.6070948685    1.7058634557
  11.6098523602    0.5182470742    5.1540653066
  12.7012729924    1.8451325011    3.2492525832
   6.9198304750    1.7970929222    4.0061116123
   7.4740714263    1.9066298698    1.3508904142
  14.4877872137    5.3290555416    4.6210642992
  15.6540121827    6.5862979222    2.4638398364
   0.3820425571    1.8205263591    0.4095288342
   7.7626332297    6.8783204033    4.4641728443
   8.5054091306    6.9321934642    1.5660279006
  16.4411564608    1.5972922019    5.8088081222
  16.6559214603    2.1429884642    3.1082996927
   2.2181029139    6.7385471547    5.5592247541
   2.6826213142    6.9321934642    2.5942090953
  10.8331336608    2.1429884642    4.1364808712
  11.7430367395    1.8630247803    1.4131368254
   5.0216752015    2.2250185148    4.7876909365
   5.5940152224    2.1429884642    2.0801184980
  13.7445275690    6.9321934642    3.6223902738
  14.4172271614    6.7011254559    0.8805491394
   2.5133042869    0.5317562260    3.6271661742
   2.9804550311    0.5367732500    0.8921951391
  10.4934310033    5.4701570108    5.0953406920
  11.2474859946    5.3209612260    2.0848943984
   4.6204869602    5.3017814467    6.0345517034
   5.4246981782    5.3209612260    3.1130755931
   5.3930488399    5.3089166964    0.3128068633
  13.5752105248    0.5317562260    4.6553473689
   0.0803330973    5.3309889156    1.4115785615
   7.4511438955    0.5303754775    5.5362258167
   8.3360920864    0.5317562260    2.5989849957
  16.4866044329    5.3209612260    4.1412567716
   0.3368585898    8.6794356978    0.4483670202
   7.8153426077    3.7586317513    4.4620306448
   8.5054091306    3.7097289879    1.5660279006
  16.6559214603    8.4989339879    3.1082996927
   2.0958631890    3.6116562130    5.2828316933
   2.6826213142    3.7097289879    2.5942090953
  10.8331336608    8.4989339879    4.1364808712
  11.7020461060    8.7330099835    1.4241495985
   5.0145921555    8.4266201807    4.7951516756
   5.5940152224    8.4989339879    2.0801184980
  13.7445275690    3.7097289879    3.6223902738
  14.4090091692    3.9420736416    0.8722668709
