Structure 2 made from 02-1-6.xsd file   
   1.00000000000000     
    10.4033537510999992   -4.7892049999999999    0.0000000000000000
     0.0000000000000000    9.5784099999999999    0.0000000000000000
     0.0000000000000000    0.0000000000000000   20.5007628560000015
   Ni   S 
    36    36
Direct
  0.5804467959999968  0.0743751380000006  0.3494151270000003
  0.7625608119999967  0.1654321460000006  0.2273165169999984
  0.9446748270000001  0.2564891540000005  0.1052179069999966
  0.3983327810000006  0.9833181309999972  0.4715137370000022
  0.0351894730000026  0.8017464770000018  0.2680160540000003
  0.2173034879999989  0.8928034839999981  0.1459174439999984
  0.3994175030000022  0.9838604919999980  0.0238188339999965
  0.6709614430000030  0.6196324619999984  0.5122132739999969
  0.8530754579999993  0.7106894690000018  0.3901146640000022
  0.1257041200000018  0.3470038000000031  0.4308142000000004
  0.3078181349999980  0.4380608080000030  0.3087155910000021
  0.4899321500000013  0.5291178149999993  0.1866169810000002
  0.6720461649999976  0.6201748229999993  0.0645183709999984
  0.2303580120000035  0.0314337459999976  0.4069953659999967
  0.4124720269999997  0.1224907539999975  0.2848967560000020
  0.5945860429999996  0.2135477610000009  0.1627981469999966
  0.7767000580000030  0.3046047690000009  0.0406995370000018
  0.0493287190000018  0.9409191000000021  0.0813990730000000
  0.6851006890000022  0.7588050849999988  0.3255962929999967
  0.8672147039999984  0.8498620920000022  0.2034976830000019
  0.1398433660000009  0.4861764230000034  0.2441972199999967
  0.3219573809999972  0.5772334310000033  0.1220986100000019
  0.5040713960000005  0.6682904379999997  0.0000000000000000
  0.9577293509999976  0.3951194160000000  0.3662958299999985
  0.5804467959999968  0.3385811380000021  0.3494151270000003
  0.7625608119999967  0.4296381460000021  0.2273165169999984
  0.9446748270000001  0.5206951540000020  0.1052179069999966
  0.0351894730000026  0.0659524770000033  0.2680160540000003
  0.2173034879999989  0.1570094839999996  0.1459174439999984
  0.3994175030000022  0.2480664919999995  0.0238188339999965
  0.6709614430000030  0.8838384619999999  0.5122132739999969
  0.8530754579999993  0.9748954690000033  0.3901146640000022
  0.1257041200000018  0.6112097999999975  0.4308142000000004
  0.3078181349999980  0.7022668079999974  0.3087155910000021
  0.4899321500000013  0.7933238150000008  0.1866169810000002
  0.6720461649999976  0.8843808230000008  0.0645183709999984
  0.1844111170000033  0.1766752990000029  0.4807054019999981
  0.3665251319999996  0.2677323059999992  0.3586067920000033
  0.5486391470000029  0.3587893139999991  0.2365081820000015
  0.7307531619999992  0.4498463210000025  0.1144095719999996
  0.0033818240000016  0.0861606519999967  0.1551091090000014
  0.1854958389999979  0.1772176599999966  0.0330104989999995
  0.6391537940000021  0.9040466370000004  0.3993063289999981
  0.8212678089999983  0.9951036450000004  0.2772077190000033
  0.0938964699999971  0.6314179749999980  0.3179072550000015
  0.2760104850000005  0.7224749829999979  0.1958086449999996
  0.4581245010000004  0.8135319900000013  0.0737100349999977
  0.9117824550000009  0.5403609680000017  0.4400058650000034
  0.1267599410000031  0.4796347110000028  0.0744662330000025
  0.5804178960000002  0.2064636879999995  0.4407620630000011
  0.7625319109999964  0.2975206959999994  0.3186634529999992
  0.9446459259999997  0.3885777030000028  0.1965648429999973
  0.2172745880000022  0.0248920339999970  0.2372643790000026
  0.3993886029999985  0.1159490419999969  0.1151657690000008
  0.0351605729999989  0.9338350259999970  0.3593629889999974
  0.8530465569999990  0.8427780190000007  0.4814615989999993
  0.3077892339999977  0.5701493569999982  0.4000625259999993
  0.4899032490000010  0.6612063649999982  0.2779639159999974
  0.6720172639999973  0.7522633720000016  0.1558653060000026
  0.8541312790000006  0.8433203800000015  0.0337666960000007
  0.5486391470000029  0.0223593139999991  0.2365081820000015
  0.7307531619999992  0.1134163210000025  0.1144095719999996
  0.1844111170000033  0.8402452990000029  0.4807054019999981
  0.3665251319999996  0.9313023059999992  0.3586067920000033
  0.0033818240000016  0.7497306519999967  0.1551091090000014
  0.1854958389999979  0.8407876599999966  0.0330104989999995
  0.6391537940000021  0.5676166370000004  0.3993063289999981
  0.8212678089999983  0.6586736450000004  0.2772077190000033
  0.0938964699999971  0.2949879749999980  0.3179072550000015
  0.2760104850000005  0.3860449829999979  0.1958086449999996
  0.4581245010000004  0.4771019900000013  0.0737100349999977
  0.9117824550000009  0.2039309680000017  0.4400058650000034
 
  0.00000000E+00  0.00000000E+00  0.00000000E+00
  0.00000000E+00  0.00000000E+00  0.00000000E+00
  0.00000000E+00  0.00000000E+00  0.00000000E+00
  0.00000000E+00  0.00000000E+00  0.00000000E+00
  0.00000000E+00  0.00000000E+00  0.00000000E+00
  0.00000000E+00  0.00000000E+00  0.00000000E+00
  0.00000000E+00  0.00000000E+00  0.00000000E+00
  0.00000000E+00  0.00000000E+00  0.00000000E+00
  0.00000000E+00  0.00000000E+00  0.00000000E+00
  0.00000000E+00  0.00000000E+00  0.00000000E+00
  0.00000000E+00  0.00000000E+00  0.00000000E+00
  0.00000000E+00  0.00000000E+00  0.00000000E+00
  0.00000000E+00  0.00000000E+00  0.00000000E+00
  0.00000000E+00  0.00000000E+00  0.00000000E+00
  0.00000000E+00  0.00000000E+00  0.00000000E+00
  0.00000000E+00  0.00000000E+00  0.00000000E+00
  0.00000000E+00  0.00000000E+00  0.00000000E+00
  0.00000000E+00  0.00000000E+00  0.00000000E+00
  0.00000000E+00  0.00000000E+00  0.00000000E+00
  0.00000000E+00  0.00000000E+00  0.00000000E+00
  0.00000000E+00  0.00000000E+00  0.00000000E+00
  0.00000000E+00  0.00000000E+00  0.00000000E+00
  0.00000000E+00  0.00000000E+00  0.00000000E+00
  0.00000000E+00  0.00000000E+00  0.00000000E+00
  0.00000000E+00  0.00000000E+00  0.00000000E+00
  0.00000000E+00  0.00000000E+00  0.00000000E+00
  0.00000000E+00  0.00000000E+00  0.00000000E+00
  0.00000000E+00  0.00000000E+00  0.00000000E+00
  0.00000000E+00  0.00000000E+00  0.00000000E+00
  0.00000000E+00  0.00000000E+00  0.00000000E+00
  0.00000000E+00  0.00000000E+00  0.00000000E+00
  0.00000000E+00  0.00000000E+00  0.00000000E+00
  0.00000000E+00  0.00000000E+00  0.00000000E+00
  0.00000000E+00  0.00000000E+00  0.00000000E+00
  0.00000000E+00  0.00000000E+00  0.00000000E+00
  0.00000000E+00  0.00000000E+00  0.00000000E+00
  0.00000000E+00  0.00000000E+00  0.00000000E+00
  0.00000000E+00  0.00000000E+00  0.00000000E+00
  0.00000000E+00  0.00000000E+00  0.00000000E+00
  0.00000000E+00  0.00000000E+00  0.00000000E+00
  0.00000000E+00  0.00000000E+00  0.00000000E+00
  0.00000000E+00  0.00000000E+00  0.00000000E+00
  0.00000000E+00  0.00000000E+00  0.00000000E+00
  0.00000000E+00  0.00000000E+00  0.00000000E+00
  0.00000000E+00  0.00000000E+00  0.00000000E+00
  0.00000000E+00  0.00000000E+00  0.00000000E+00
  0.00000000E+00  0.00000000E+00  0.00000000E+00
  0.00000000E+00  0.00000000E+00  0.00000000E+00
  0.00000000E+00  0.00000000E+00  0.00000000E+00
  0.00000000E+00  0.00000000E+00  0.00000000E+00
  0.00000000E+00  0.00000000E+00  0.00000000E+00
  0.00000000E+00  0.00000000E+00  0.00000000E+00
  0.00000000E+00  0.00000000E+00  0.00000000E+00
  0.00000000E+00  0.00000000E+00  0.00000000E+00
  0.00000000E+00  0.00000000E+00  0.00000000E+00
  0.00000000E+00  0.00000000E+00  0.00000000E+00
  0.00000000E+00  0.00000000E+00  0.00000000E+00
  0.00000000E+00  0.00000000E+00  0.00000000E+00
  0.00000000E+00  0.00000000E+00  0.00000000E+00
  0.00000000E+00  0.00000000E+00  0.00000000E+00
  0.00000000E+00  0.00000000E+00  0.00000000E+00
  0.00000000E+00  0.00000000E+00  0.00000000E+00
  0.00000000E+00  0.00000000E+00  0.00000000E+00
  0.00000000E+00  0.00000000E+00  0.00000000E+00
  0.00000000E+00  0.00000000E+00  0.00000000E+00
  0.00000000E+00  0.00000000E+00  0.00000000E+00
  0.00000000E+00  0.00000000E+00  0.00000000E+00
  0.00000000E+00  0.00000000E+00  0.00000000E+00
  0.00000000E+00  0.00000000E+00  0.00000000E+00
  0.00000000E+00  0.00000000E+00  0.00000000E+00
  0.00000000E+00  0.00000000E+00  0.00000000E+00
  0.00000000E+00  0.00000000E+00  0.00000000E+00
