Type_036 Type_136                       
   1.00000000000000     
    10.0797329848999997    0.0000000000000000    0.0000000000000000
     3.5732980426999998    9.4251025535000004    0.0000000000000000
     0.0000000000000000    0.0000000000000000   20.6835035552000015
   Ty   Ty
    36    36
Direct
  0.3970588899984335  0.7949517910038750  0.1181622060004202
  0.5473274020009384  0.6446832789998211  0.2450992310016815
  0.6975959150018625  0.4944147659984424  0.3720362550021363
  0.1138150610011408  0.4115289540016391  0.1604745480011047
  0.2640835730000504  0.2612604410002533  0.2874115720015666
  0.4143520860045697  0.1109919289961994  0.4143485960020215
  0.9749918364601768  0.6064659611451546  0.0963537314160163
  0.1088886479912929  0.7663598005644801  0.4436060405294953
  0.6818393109826530  0.1819917886265330  0.1083581303679324
  0.8305712320002456  0.0281061160020641  0.2027868890009970
  0.9808397439890726  0.8778376040086258  0.3297239140022512
  0.3635276369719662  0.5513837270630191  0.1044652744992405
  0.5076255599924124  0.4201791210037698  0.2115617070010316
  0.6578940719949173  0.2699106089997230  0.3384987320022859
  0.8010582292684916  0.1038374362236070  0.4504418155771148
  0.0741132180005195  0.1870247960055806  0.1269370240004619
  0.2243817309951126  0.0367562840015339  0.2538740490017162
  0.3746502430039484  0.8864877710001480  0.3808110730021710
  0.4374512082053101  0.7181864216200324  0.4644874539490047
  0.0712221554885204  0.3687284936554320  0.0403272179287200
  0.0448942950490903  0.5115001067133988  0.3985721850555350
  0.6247089534046779  0.9189292685822039  0.0692887826269484
  0.7908693889933005  0.8036019590033447  0.1692493660011465
  0.9411379009922101  0.6533334460019589  0.2961863900016013
  0.0267304871307275  0.1614276967028871  0.4155496705459782
  0.5880139643927649  0.5956731287995538  0.0726413420332861
  0.7321297169994381  0.4598809639997441  0.1780241840011811
  0.8823982300003621  0.3096124509983582  0.3049612080016431
  0.2986173759996333  0.2267266390015550  0.0933995010006115
  0.4488858879985500  0.0764581260001691  0.2203365250010663
  0.5991543999972961  0.9261896140067307  0.3472735500023276
  0.7344612455758508  0.8162286096444831  0.4436417068757734
  0.0153735459967379  0.8433038010019800  0.1357118420004966
  0.1656420590012502  0.6930352889979332  0.2626488670017508
  0.3159105709964010  0.5427667760071557  0.3895858910022127
  0.4922495086782490  0.4502623665165402  0.4672598335435438
  0.0147468008363774  0.9844524418203164  0.4672136722731608
  0.5857992919939576  0.4059993890017708  0.1084717490009552
  0.7360678039964696  0.2557308769977169  0.2354087740022095
  0.8863363159952087  0.1054623650042785  0.3623457979978326
  0.1682951217537578  0.1558235114751767  0.0377372636515361
  0.3025554619946504  0.0225765519995278  0.1507840910016398
  0.4528239749954110  0.8723080400060894  0.2777211150020946
  0.6030924869943206  0.7220395270047106  0.4046581389977248
  0.0193116330036815  0.6391537139999599  0.1930964320015249
  0.1695801459945159  0.4888852020065215  0.3200334560019868
  0.3777653715106553  0.3337463344451237  0.4297832797560588
  0.8541894583859388  0.8165652366766025  0.0750927453685435
  0.5108859784121336  0.7988706161827324  0.0363810230114936
  0.6363541270001392  0.6918745539992486  0.1511771719986896
  0.7866226400010632  0.5416060409978627  0.2781141969999439
  0.9239136244523038  0.3820664604506376  0.3942980049745799
  0.2063857344266466  0.4622404758431173  0.0771886932617178
  0.3531102979992511  0.3084517159996736  0.1934895139993742
  0.5033788100017560  0.1581832039956268  0.3204265379998361
  0.6340982846484522  0.0289855756846435  0.4334404728229018
  0.0698664689981925  0.9250288790080461  0.2358018549992593
  0.2201349809971020  0.7747603660066602  0.3627388800005207
  0.2984100927135884  0.6174416481589304  0.4846240514305862
  0.9160189318669794  0.0763687646276807  0.1198171705865079
  0.2139433538856466  0.7598573537367486  0.0885465119394411
  0.3504789629935630  0.6413197180072459  0.1938825950012628
  0.5007474749960750  0.4910512060031991  0.3208196199976854
  0.6866895743157215  0.3252509699707886  0.4336099176169412
  0.0672351339962702  0.2578968810050100  0.2361949370019474
  0.2175036459951798  0.1076283680036241  0.3631319610024022
  0.4012391887052686  0.9392849140949124  0.4726493144263344
  0.9169666209955096  0.4081653929984483  0.1092579130014855
  0.5110586337556242  0.1424375930956288  0.0557401506869084
  0.6337227919982169  0.0247425559962124  0.1515702540013777
  0.7839913039933677  0.8744740430054350  0.2785072780018325
  0.9342598169978871  0.7242055310013882  0.4054443029982551
 
  0.00000000E+00  0.00000000E+00  0.00000000E+00
  0.00000000E+00  0.00000000E+00  0.00000000E+00
  0.00000000E+00  0.00000000E+00  0.00000000E+00
  0.00000000E+00  0.00000000E+00  0.00000000E+00
  0.00000000E+00  0.00000000E+00  0.00000000E+00
  0.00000000E+00  0.00000000E+00  0.00000000E+00
  0.00000000E+00  0.00000000E+00  0.00000000E+00
  0.00000000E+00  0.00000000E+00  0.00000000E+00
  0.00000000E+00  0.00000000E+00  0.00000000E+00
  0.00000000E+00  0.00000000E+00  0.00000000E+00
  0.00000000E+00  0.00000000E+00  0.00000000E+00
  0.00000000E+00  0.00000000E+00  0.00000000E+00
  0.00000000E+00  0.00000000E+00  0.00000000E+00
  0.00000000E+00  0.00000000E+00  0.00000000E+00
  0.00000000E+00  0.00000000E+00  0.00000000E+00
  0.00000000E+00  0.00000000E+00  0.00000000E+00
  0.00000000E+00  0.00000000E+00  0.00000000E+00
  0.00000000E+00  0.00000000E+00  0.00000000E+00
  0.00000000E+00  0.00000000E+00  0.00000000E+00
  0.00000000E+00  0.00000000E+00  0.00000000E+00
  0.00000000E+00  0.00000000E+00  0.00000000E+00
  0.00000000E+00  0.00000000E+00  0.00000000E+00
  0.00000000E+00  0.00000000E+00  0.00000000E+00
  0.00000000E+00  0.00000000E+00  0.00000000E+00
  0.00000000E+00  0.00000000E+00  0.00000000E+00
  0.00000000E+00  0.00000000E+00  0.00000000E+00
  0.00000000E+00  0.00000000E+00  0.00000000E+00
  0.00000000E+00  0.00000000E+00  0.00000000E+00
  0.00000000E+00  0.00000000E+00  0.00000000E+00
  0.00000000E+00  0.00000000E+00  0.00000000E+00
  0.00000000E+00  0.00000000E+00  0.00000000E+00
  0.00000000E+00  0.00000000E+00  0.00000000E+00
  0.00000000E+00  0.00000000E+00  0.00000000E+00
  0.00000000E+00  0.00000000E+00  0.00000000E+00
  0.00000000E+00  0.00000000E+00  0.00000000E+00
  0.00000000E+00  0.00000000E+00  0.00000000E+00
  0.00000000E+00  0.00000000E+00  0.00000000E+00
  0.00000000E+00  0.00000000E+00  0.00000000E+00
  0.00000000E+00  0.00000000E+00  0.00000000E+00
  0.00000000E+00  0.00000000E+00  0.00000000E+00
  0.00000000E+00  0.00000000E+00  0.00000000E+00
  0.00000000E+00  0.00000000E+00  0.00000000E+00
  0.00000000E+00  0.00000000E+00  0.00000000E+00
  0.00000000E+00  0.00000000E+00  0.00000000E+00
  0.00000000E+00  0.00000000E+00  0.00000000E+00
  0.00000000E+00  0.00000000E+00  0.00000000E+00
  0.00000000E+00  0.00000000E+00  0.00000000E+00
  0.00000000E+00  0.00000000E+00  0.00000000E+00
  0.00000000E+00  0.00000000E+00  0.00000000E+00
  0.00000000E+00  0.00000000E+00  0.00000000E+00
  0.00000000E+00  0.00000000E+00  0.00000000E+00
  0.00000000E+00  0.00000000E+00  0.00000000E+00
  0.00000000E+00  0.00000000E+00  0.00000000E+00
  0.00000000E+00  0.00000000E+00  0.00000000E+00
  0.00000000E+00  0.00000000E+00  0.00000000E+00
  0.00000000E+00  0.00000000E+00  0.00000000E+00
  0.00000000E+00  0.00000000E+00  0.00000000E+00
  0.00000000E+00  0.00000000E+00  0.00000000E+00
  0.00000000E+00  0.00000000E+00  0.00000000E+00
  0.00000000E+00  0.00000000E+00  0.00000000E+00
  0.00000000E+00  0.00000000E+00  0.00000000E+00
  0.00000000E+00  0.00000000E+00  0.00000000E+00
  0.00000000E+00  0.00000000E+00  0.00000000E+00
  0.00000000E+00  0.00000000E+00  0.00000000E+00
  0.00000000E+00  0.00000000E+00  0.00000000E+00
  0.00000000E+00  0.00000000E+00  0.00000000E+00
  0.00000000E+00  0.00000000E+00  0.00000000E+00
  0.00000000E+00  0.00000000E+00  0.00000000E+00
  0.00000000E+00  0.00000000E+00  0.00000000E+00
  0.00000000E+00  0.00000000E+00  0.00000000E+00
  0.00000000E+00  0.00000000E+00  0.00000000E+00
  0.00000000E+00  0.00000000E+00  0.00000000E+00
