Structure 15 made from -111-7.xsd file  
   1.00000000000000     
    10.0628203370999998    5.0445621212000002    0.0000000000000000
     0.0000000000000000   11.2564630381999997    0.0000000000000000
     0.0000000000000000    0.0000000000000000   22.8836493875000002
   Ni   S 
    52    52
Direct
  0.2609206959999995  0.4787803600000018  0.2905061140000029
  0.3548805619999982  0.3848204929999994  0.4188098609999997
  0.4488404279999969  0.2908606270000007  0.5471136079999965
  0.0730009629999984  0.1667001069999969  0.0338986200000022
  0.1669608289999971  0.0727402409999982  0.1622023669999990
  0.0561186790000008  0.0514793950000012  0.5132149880000014
  0.2742390650000033  0.3333589940000010  0.1283037469999968
  0.3681989310000020  0.2393991280000023  0.2566074940000007
  0.4621587979999973  0.1454392619999965  0.3849112409999975
  0.0003019420000001  0.3715021240000027  0.2566074940000007
  0.0942618090000025  0.2775422579999969  0.3849112409999975
  0.1882216750000012  0.1835823910000016  0.5132149880000014
  0.4063420609999966  0.4654619909999980  0.1283037469999968
  0.3123821940000013  0.0594218720000015  0.0000000000000000
  0.7609206959999995  0.4787803600000018  0.2905061140000029
  0.8548805619999982  0.3848204929999994  0.4188098609999997
  0.5730009629999984  0.1667001069999969  0.0338986200000022
  0.6669608289999971  0.0727402409999982  0.1622023669999990
  0.5561186790000008  0.0514793950000012  0.5132149880000014
  0.7742390650000033  0.3333589940000010  0.1283037469999968
  0.8681989310000020  0.2393991280000023  0.2566074940000007
  0.9621587979999973  0.1454392619999965  0.3849112409999975
  0.5003019420000001  0.3715021240000027  0.2566074940000007
  0.5942618090000025  0.2775422579999969  0.3849112409999975
  0.9063420609999966  0.4654619909999980  0.1283037469999968
  0.8123821940000013  0.0594218720000015  0.0000000000000000
  0.2609206959999995  0.9787803600000018  0.2905061140000029
  0.3548805619999982  0.8848204929999994  0.4188098609999997
  0.0730009629999984  0.6667001069999969  0.0338986200000022
  0.1669608289999971  0.5727402409999982  0.1622023669999990
  0.0561186790000008  0.5514793950000012  0.5132149880000014
  0.2742390650000033  0.8333589940000010  0.1283037469999968
  0.3681989310000020  0.7393991280000023  0.2566074940000007
  0.4621587979999973  0.6454392619999965  0.3849112409999975
  0.0003019420000001  0.8715021240000027  0.2566074940000007
  0.0942618090000025  0.7775422579999969  0.3849112409999975
  0.1882216750000012  0.6835823910000016  0.5132149880000014
  0.4063420609999966  0.9654619909999980  0.1283037469999968
  0.3123821940000013  0.5594218720000015  0.0000000000000000
  0.7609206959999995  0.9787803600000018  0.2905061140000029
  0.8548805619999982  0.8848204929999994  0.4188098609999997
  0.5730009629999984  0.6667001069999969  0.0338986200000022
  0.6669608289999971  0.5727402409999982  0.1622023669999990
  0.6802791980000009  0.9273188610000034  0.0000000000000000
  0.7742390650000033  0.8333589940000010  0.1283037469999968
  0.8681989310000020  0.7393991280000023  0.2566074940000007
  0.9621587979999973  0.6454392619999965  0.3849112409999975
  0.5003019420000001  0.8715021240000027  0.2566074940000007
  0.5942618090000025  0.7775422579999969  0.3849112409999975
  0.6882216750000012  0.6835823910000016  0.5132149880000014
  0.9063420609999966  0.9654619909999980  0.1283037469999968
  0.8123821940000013  0.5594218720000015  0.0000000000000000
  0.0728776349999976  0.1668234349999977  0.3063992700000000
  0.1668375019999999  0.0728635680000025  0.4347030169999968
  0.3849578880000024  0.3547431679999988  0.0497917759999993
  0.4789177540000011  0.2607833010000036  0.1780955230000032
  0.2607973679999986  0.4789036869999990  0.5630067640000007
  0.0302334249999987  0.3776826400000033  0.4778682470000035
  0.4362735429999987  0.4716425069999985  0.3495644999999996
  0.2483538110000012  0.1595622549999973  0.0929570059999989
  0.3423136769999999  0.0656023880000021  0.2212607530000028
  0.0801388160000016  0.4913472450000000  0.0929570059999989
  0.1740986820000003  0.3973873779999977  0.2212607530000028
  0.2680585479999991  0.3034275119999990  0.3495644999999996
  0.3620184150000014  0.2094676449999966  0.4778682470000035
  0.5728776349999976  0.1668234349999977  0.3063992700000000
  0.6668375019999999  0.0728635680000025  0.4347030169999968
  0.8849578880000024  0.3547431679999988  0.0497917759999993
  0.9789177540000011  0.2607833010000036  0.1780955230000032
  0.7607973679999986  0.4789036869999990  0.5630067640000007
  0.5302334249999987  0.3776826400000033  0.4778682470000035
  0.9362735429999987  0.4716425069999985  0.3495644999999996
  0.7483538110000012  0.1595622549999973  0.0929570059999989
  0.8423136769999999  0.0656023880000021  0.2212607530000028
  0.5801388160000016  0.4913472450000000  0.0929570059999989
  0.6740986820000003  0.3973873779999977  0.2212607530000028
  0.7680585479999991  0.3034275119999990  0.3495644999999996
  0.8620184150000014  0.2094676449999966  0.4778682470000035
  0.0728776349999976  0.6668234349999977  0.3063992700000000
  0.1668375019999999  0.5728635680000025  0.4347030169999968
  0.3849578880000024  0.8547431679999988  0.0497917759999993
  0.4789177540000011  0.7607833010000036  0.1780955230000032
  0.2607973679999986  0.9789036869999990  0.5630067640000007
  0.0302334249999987  0.8776826400000033  0.4778682470000035
  0.4362735429999987  0.9716425069999985  0.3495644999999996
  0.2483538110000012  0.6595622549999973  0.0929570059999989
  0.3423136769999999  0.5656023880000021  0.2212607530000028
  0.0801388160000016  0.9913472450000000  0.0929570059999989
  0.1740986820000003  0.8973873779999977  0.2212607530000028
  0.2680585479999991  0.8034275119999990  0.3495644999999996
  0.3620184150000014  0.7094676449999966  0.4778682470000035
  0.5728776349999976  0.6668234349999977  0.3063992700000000
  0.6668375019999999  0.5728635680000025  0.4347030169999968
  0.8849578880000024  0.8547431679999988  0.0497917759999993
  0.9789177540000011  0.7607833010000036  0.1780955230000032
  0.7607973679999986  0.9789036869999990  0.5630067640000007
  0.5302334249999987  0.8776826400000033  0.4778682470000035
  0.9362735429999987  0.9716425069999985  0.3495644999999996
  0.7483538110000012  0.6595622549999973  0.0929570059999989
  0.8423136769999999  0.5656023880000021  0.2212607530000028
  0.5801388160000016  0.9913472450000000  0.0929570059999989
  0.6740986820000003  0.8973873779999977  0.2212607530000028
  0.7680585479999991  0.8034275119999990  0.3495644999999996
  0.8620184150000014  0.7094676449999966  0.4778682470000035
 
  0.00000000E+00  0.00000000E+00  0.00000000E+00
  0.00000000E+00  0.00000000E+00  0.00000000E+00
  0.00000000E+00  0.00000000E+00  0.00000000E+00
  0.00000000E+00  0.00000000E+00  0.00000000E+00
  0.00000000E+00  0.00000000E+00  0.00000000E+00
  0.00000000E+00  0.00000000E+00  0.00000000E+00
  0.00000000E+00  0.00000000E+00  0.00000000E+00
  0.00000000E+00  0.00000000E+00  0.00000000E+00
  0.00000000E+00  0.00000000E+00  0.00000000E+00
  0.00000000E+00  0.00000000E+00  0.00000000E+00
  0.00000000E+00  0.00000000E+00  0.00000000E+00
  0.00000000E+00  0.00000000E+00  0.00000000E+00
  0.00000000E+00  0.00000000E+00  0.00000000E+00
  0.00000000E+00  0.00000000E+00  0.00000000E+00
  0.00000000E+00  0.00000000E+00  0.00000000E+00
  0.00000000E+00  0.00000000E+00  0.00000000E+00
  0.00000000E+00  0.00000000E+00  0.00000000E+00
  0.00000000E+00  0.00000000E+00  0.00000000E+00
  0.00000000E+00  0.00000000E+00  0.00000000E+00
  0.00000000E+00  0.00000000E+00  0.00000000E+00
  0.00000000E+00  0.00000000E+00  0.00000000E+00
  0.00000000E+00  0.00000000E+00  0.00000000E+00
  0.00000000E+00  0.00000000E+00  0.00000000E+00
  0.00000000E+00  0.00000000E+00  0.00000000E+00
  0.00000000E+00  0.00000000E+00  0.00000000E+00
  0.00000000E+00  0.00000000E+00  0.00000000E+00
  0.00000000E+00  0.00000000E+00  0.00000000E+00
  0.00000000E+00  0.00000000E+00  0.00000000E+00
  0.00000000E+00  0.00000000E+00  0.00000000E+00
  0.00000000E+00  0.00000000E+00  0.00000000E+00
  0.00000000E+00  0.00000000E+00  0.00000000E+00
  0.00000000E+00  0.00000000E+00  0.00000000E+00
  0.00000000E+00  0.00000000E+00  0.00000000E+00
  0.00000000E+00  0.00000000E+00  0.00000000E+00
  0.00000000E+00  0.00000000E+00  0.00000000E+00
  0.00000000E+00  0.00000000E+00  0.00000000E+00
  0.00000000E+00  0.00000000E+00  0.00000000E+00
  0.00000000E+00  0.00000000E+00  0.00000000E+00
  0.00000000E+00  0.00000000E+00  0.00000000E+00
  0.00000000E+00  0.00000000E+00  0.00000000E+00
  0.00000000E+00  0.00000000E+00  0.00000000E+00
  0.00000000E+00  0.00000000E+00  0.00000000E+00
  0.00000000E+00  0.00000000E+00  0.00000000E+00
  0.00000000E+00  0.00000000E+00  0.00000000E+00
  0.00000000E+00  0.00000000E+00  0.00000000E+00
  0.00000000E+00  0.00000000E+00  0.00000000E+00
  0.00000000E+00  0.00000000E+00  0.00000000E+00
  0.00000000E+00  0.00000000E+00  0.00000000E+00
  0.00000000E+00  0.00000000E+00  0.00000000E+00
  0.00000000E+00  0.00000000E+00  0.00000000E+00
  0.00000000E+00  0.00000000E+00  0.00000000E+00
  0.00000000E+00  0.00000000E+00  0.00000000E+00
  0.00000000E+00  0.00000000E+00  0.00000000E+00
  0.00000000E+00  0.00000000E+00  0.00000000E+00
  0.00000000E+00  0.00000000E+00  0.00000000E+00
  0.00000000E+00  0.00000000E+00  0.00000000E+00
  0.00000000E+00  0.00000000E+00  0.00000000E+00
  0.00000000E+00  0.00000000E+00  0.00000000E+00
  0.00000000E+00  0.00000000E+00  0.00000000E+00
  0.00000000E+00  0.00000000E+00  0.00000000E+00
  0.00000000E+00  0.00000000E+00  0.00000000E+00
  0.00000000E+00  0.00000000E+00  0.00000000E+00
  0.00000000E+00  0.00000000E+00  0.00000000E+00
  0.00000000E+00  0.00000000E+00  0.00000000E+00
  0.00000000E+00  0.00000000E+00  0.00000000E+00
  0.00000000E+00  0.00000000E+00  0.00000000E+00
  0.00000000E+00  0.00000000E+00  0.00000000E+00
  0.00000000E+00  0.00000000E+00  0.00000000E+00
  0.00000000E+00  0.00000000E+00  0.00000000E+00
  0.00000000E+00  0.00000000E+00  0.00000000E+00
  0.00000000E+00  0.00000000E+00  0.00000000E+00
  0.00000000E+00  0.00000000E+00  0.00000000E+00
  0.00000000E+00  0.00000000E+00  0.00000000E+00
  0.00000000E+00  0.00000000E+00  0.00000000E+00
  0.00000000E+00  0.00000000E+00  0.00000000E+00
  0.00000000E+00  0.00000000E+00  0.00000000E+00
  0.00000000E+00  0.00000000E+00  0.00000000E+00
  0.00000000E+00  0.00000000E+00  0.00000000E+00
  0.00000000E+00  0.00000000E+00  0.00000000E+00
  0.00000000E+00  0.00000000E+00  0.00000000E+00
  0.00000000E+00  0.00000000E+00  0.00000000E+00
  0.00000000E+00  0.00000000E+00  0.00000000E+00
  0.00000000E+00  0.00000000E+00  0.00000000E+00
  0.00000000E+00  0.00000000E+00  0.00000000E+00
  0.00000000E+00  0.00000000E+00  0.00000000E+00
  0.00000000E+00  0.00000000E+00  0.00000000E+00
  0.00000000E+00  0.00000000E+00  0.00000000E+00
  0.00000000E+00  0.00000000E+00  0.00000000E+00
  0.00000000E+00  0.00000000E+00  0.00000000E+00
  0.00000000E+00  0.00000000E+00  0.00000000E+00
  0.00000000E+00  0.00000000E+00  0.00000000E+00
  0.00000000E+00  0.00000000E+00  0.00000000E+00
  0.00000000E+00  0.00000000E+00  0.00000000E+00
  0.00000000E+00  0.00000000E+00  0.00000000E+00
  0.00000000E+00  0.00000000E+00  0.00000000E+00
  0.00000000E+00  0.00000000E+00  0.00000000E+00
  0.00000000E+00  0.00000000E+00  0.00000000E+00
  0.00000000E+00  0.00000000E+00  0.00000000E+00
  0.00000000E+00  0.00000000E+00  0.00000000E+00
  0.00000000E+00  0.00000000E+00  0.00000000E+00
  0.00000000E+00  0.00000000E+00  0.00000000E+00
  0.00000000E+00  0.00000000E+00  0.00000000E+00
  0.00000000E+00  0.00000000E+00  0.00000000E+00
  0.00000000E+00  0.00000000E+00  0.00000000E+00
