Type_048 Type_148 
1.0
1.1256463038200000e+01 0.0000000000000000e+00 0.0000000000000000e+00 
5.0445621212000002e+00 1.0062820337100000e+01 0.0000000000000000e+00 
0.0000000000000000e+00 0.0000000000000000e+00 2.2519955973199998e+01 
Type_0 Type_1 
48 48 
Cartesian
   5.3522814431    4.8178808643    6.6478400406
   5.9359508271    3.8723796038    9.5838980147
   2.2463310804    0.7319720972    3.7117820891
   4.2756590836    4.3389457346    0.7689586363
   4.7686120570    3.3545317851    2.9360579516
   5.3522814460    2.4090305347    5.8721159257
   5.9359508187    1.4635292742    8.8081738772
   1.8774643571    3.7383592494    5.8721159257
   2.4611337299    2.7928579889    8.8081738772
   6.9220263184    4.6838604999    2.9360579516
  10.9805129622    4.8178808643    6.6478400406
  11.5641823462    3.8723796038    9.5838980147
  11.5820770540    3.3010174938   11.9351448728
   7.8745625995    0.7319720972    3.7117820891
   6.2550472254    0.6184672005   11.1680883983
  10.3968435761    3.3545317851    2.9360579516
  10.9805129651    2.4090305347    5.8721159257
  11.5641823378    1.4635292742    8.8081738772
   7.5056958763    3.7383592494    5.8721159257
   8.0893652490    2.7928579889    8.8081738772
   8.7018134299    2.1288860297   11.1680887279
  12.5502578375    4.6838604999    2.9360579516
   7.8745625037    9.8492910329    6.6478400406
   8.4582318877    8.9037897724    9.5838980147
   8.9609857876    8.6317387744   11.9351446960
   4.7686121410    5.7633822657    3.7117820891
   2.6996034740    5.0923324465   10.6472087103
   2.5449883854    0.2473030550    1.3292756131
   7.2908931175    8.3859419536    2.9360579516
   7.8745625066    7.4404407032    5.8721159257
   8.4582318793    6.4949394427    8.8081738772
   4.3997454177    8.7697694179    5.8721159257
   4.9834147905    7.8242681574    8.8081738772
   6.2957250401    7.3122619890   10.6472089406
   9.4443073790    9.7152706684    2.9360579516
   6.3262156238    5.5630438686    0.7591067221
  13.5027940228    9.8492910329    6.6478400406
  14.0864634068    8.9037897724    9.5838980147
   3.8881105145    7.1897290148   11.1534654675
  10.3968436601    5.7633822657    3.7117820891
   8.1784309797    0.2427230251    1.3328837411
  12.9191246367    8.3859419536    2.9360579516
  13.5027940257    7.4404407032    5.8721159257
  14.0864633984    6.4949394427    8.8081738772
  10.0279769369    8.7697694179    5.8721159257
  10.6116463096    7.8242681574    8.8081738772
  15.0725388981    9.7152706684    2.9360579516
  10.7018208857    5.2924370726    1.3448485182
   1.6618956013    1.6787143752    7.0115334562
   2.2327302286    0.7180799126    9.3676242205
   6.0849256465    3.6369240290    1.3075506690
   6.7064575738    2.6242156256    4.0754755046
   1.9662368312    3.2218635417   10.7916607705
   7.2901269524    4.7460539320    7.9993114444
   3.6912362974    1.5790314638    2.4071654830
   4.1841765897    0.6601451649    5.0632534928
   3.3452530765    4.8706060972    2.4613578875
   3.9643807089    3.9988379098    5.0632534928
   4.5480500867    3.0533366593    7.9993114444
   5.2065521969    2.2335597412   10.5937458090
   7.2901271205    1.6787143752    7.0115334562
   7.8737965044    0.7332131147    9.9475914303
  11.7383279819    3.5742775630    1.3928742682
  12.3346890930    2.6242156256    4.0754755046
   7.7278678166    3.7899986411   10.5937456910
  12.9183584715    4.7460539320    7.9993114444
   9.3178404733    1.5718684134    2.4145678068
   9.8124081088    0.6601451649    5.0632534928
   8.9910523676    4.8476217024    2.4101990581
   9.5926122281    3.9988379098    5.0632534928
  10.1762816058    3.0533366593    7.9993114444
  10.6701894096    2.1588000885   10.5768819425
   4.1841766619    6.7101245437    7.0115334562
   4.7678460459    5.7646232832    9.9475914303
   8.6481426383    8.6068847294    1.3952397479
   9.2287386344    7.6556257942    4.0754755046
   4.8472884045    8.8853253381   10.5832239709
   9.8124080130    9.7774641005    7.9993114444
   6.2049233697    6.6319704625    2.4518697193
   6.7064576503    5.6915553334    5.0632534928
   5.8908061831    9.8863500024    2.4122740674
   6.4866617695    9.0302480783    5.0632534928
   7.0703311473    8.0847468279    7.9993114444
   8.2965051591    7.1296152538   10.7916606491
   9.8124081810    6.7101245437    7.0115334562
  10.4153581181    5.7693138231    9.3676221933
  14.2770392394    8.5992256234    1.4003840908
  14.8569701535    7.6556257942    4.0754755046
  10.3907433089    8.9350453173   10.5768821479
  15.4406395321    9.7774641005    7.9993114444
  11.8472644318    6.6163395989    2.4307990816
  12.3346891694    5.6915553334    5.0632534928
  11.5212777419    9.8839353946    2.4109427582
  12.1148932887    9.0302480783    5.0632534928
  12.6985626664    8.0847468279    7.9993114444
  13.1989257250    7.0921411652   10.5832238125
