Type_048 Type_148                       
   1.00000000000000     
     6.2785599999999997    0.0000000000000000    0.0000000000000000
     2.0928533957000002   11.0601955134000001    0.0000000000000000
     0.0000000000000000    0.0000000000000000   29.1568199999999997
   Ty   Ty
    48    48
Direct
  0.2563094379991355  0.0164585909968267  0.1523934869989247
  0.2563094379991355  0.0164585909968267  0.4809070209988633
  0.0063094380010256  0.2664585829996824  0.3166502539988940
  0.0903862350226987  0.1048160478352713  0.6426625605673024
  0.2963872704634980  0.0136815673842889  0.0697052520645229
  0.2563094379991355  0.0164585909968267  0.3941117740000450
  0.0063094380010256  0.2664585829996824  0.2298550070000758
  0.0063094380010256  0.2664585829996824  0.5583685420014959
  0.1902579379989220  0.2146130849969339  0.1089958629987748
  0.1902579379989220  0.2146130849969339  0.4375093980001949
  0.4402579380007481  0.4646130780033815  0.2732526299987441
  0.4405988766199371  0.5473220214385819  0.5500634090754772
  0.7563094379991355  0.0164585909968267  0.1523934869989247
  0.7563094379991355  0.0164585909968267  0.4809070209988633
  0.5063094380010256  0.2664585829996824  0.3166502539988940
  0.5903862350226987  0.1048160478352713  0.6426625605673024
  0.7563094379991355  0.0164585909968267  0.0655982400001065
  0.7563094379991355  0.0164585909968267  0.3941117740000450
  0.5063094380010256  0.2664585829996824  0.2298550070000758
  0.5063094380010256  0.2664585829996824  0.5583685420014959
  0.6902579379989220  0.2146130849969339  0.1089958629987748
  0.6902579379989220  0.2146130849969339  0.4375093980001949
  0.9402579380007481  0.4646130780033815  0.2732526299987441
  0.9405988766199371  0.5473220214385819  0.5500634090754772
  0.2563094380071007  0.5164585909968267  0.1523934869989247
  0.2563094380071007  0.5164585909968267  0.4809070209988633
  0.0063094380089836  0.7664585829996824  0.3166502539988940
  0.0109401786286085  0.7680380657202903  0.6384137642136523
  0.2563094380071007  0.5164585909968267  0.0655982400001065
  0.2563094380071007  0.5164585909968267  0.3941117740000450
  0.0063094380089836  0.7664585829996824  0.2298550070000758
  0.0063094380089836  0.7664585829996824  0.5583685420014959
  0.1902579380068872  0.7146130849969339  0.1089958629987748
  0.1902579380068872  0.7146130849969339  0.4375093980001949
  0.4402579380087133  0.9646130780033815  0.2732526299987441
  0.4402579380087133  0.9646130780033815  0.6017661650001642
  0.7563094380071007  0.5164585909968267  0.1523934869989247
  0.7563094380071007  0.5164585909968267  0.4809070209988633
  0.5063094380089836  0.7664585829996824  0.3166502539988940
  0.5109401786286085  0.7680380657202903  0.6384137642136523
  0.7963872706010307  0.5136815673300390  0.0697052520336570
  0.7563094380071007  0.5164585909968267  0.3941117740000450
  0.5063094380089836  0.7664585829996824  0.2298550070000758
  0.5063094380089836  0.7664585829996824  0.5583685420014959
  0.6902579380068872  0.7146130849969339  0.1089958629987748
  0.6902579380068872  0.7146130849969339  0.4375093980001949
  0.9402579380087133  0.9646130780033815  0.2732526299987441
  0.9402579380087133  0.9646130780033815  0.6017661650001642
  0.4639877156743779  0.1604201828304355  0.0668779763671097
  0.4684041049957912  0.1666175859972228  0.3822484939990005
  0.2184041049976173  0.4166175790036704  0.2179917260009816
  0.2184041049976173  0.4166175790036704  0.5465052609989698
  0.4684041049957912  0.1666175859972228  0.1642567669999693
  0.4684041049957912  0.1666175859972228  0.4927703020013823
  0.0386141813100451  0.4622374608664046  0.0224085171050916
  0.2184041049976173  0.4166175790036704  0.3285135350014201
  0.0525116050000562  0.4142950790018531  0.1089958629987748
  0.0525116050000562  0.4142950790018531  0.4375093980001949
  0.3025116049982302  0.1642950859953984  0.2732526299987441
  0.3025116049982302  0.1642950859953984  0.6017661650001642
  0.9744324077469102  0.1373651047451503  0.0688908608311891
  0.9684041049957912  0.1666175859972228  0.3822484939990005
  0.7184041049976173  0.4166175790036704  0.2179917260009816
  0.7184041049976173  0.4166175790036704  0.5465052609989698
  0.9684041049957912  0.1666175859972228  0.1642567669999693
  0.9684041049957912  0.1666175859972228  0.4927703020013823
  0.7184041049976173  0.4166175790036704  0.3285135350014201
  0.5525116050000562  0.4142950790018531  0.1089958629987748
  0.5525116050000562  0.4142950790018531  0.4375093980001949
  0.8025116049982302  0.1642950859953984  0.2732526299987441
  0.8025116049982302  0.1642950859953984  0.6017661650001642
  0.4744324077677859  0.6373651047541884  0.0688908608311891
  0.4684041050037564  0.6666175859972228  0.3822484939990005
  0.2184041050085952  0.9166175789946323  0.2179917260009816
  0.2184041050085952  0.9166175789946323  0.5465052609989698
  0.4684041050037564  0.6666175859972228  0.1642567669999693
  0.4684041050037564  0.6666175859972228  0.4927703020013823
  0.2184041050085952  0.9166175789946323  0.3285135350014201
  0.2084923478936318  0.9056086420592493  0.6469524895581884
  0.0525116050080214  0.9142950790018531  0.1089958629987748
  0.0525116050080214  0.9142950790018531  0.4375093980001949
  0.3025116050061953  0.6642950859953984  0.2732526299987441
  0.3025116050061953  0.6642950859953984  0.6017661650001642
  0.9639877156913812  0.6604201828033140  0.0668779763808232
  0.9684041050037564  0.6666175859972228  0.3822484939990005
  0.7184041050085952  0.9166175789946323  0.2179917260009816
  0.7184041050085952  0.9166175789946323  0.5465052609989698
  0.9684041050037564  0.6666175859972228  0.1642567669999693
  0.9684041050037564  0.6666175859972228  0.4927703020013823
  0.5386141814424121  0.9622374608754427  0.0224085170879391
  0.7184041050085952  0.9166175789946323  0.3285135350014201
  0.7084923478936318  0.9056086420592493  0.6469524895581884
  0.5525116050080214  0.9142950790018531  0.1089958629987748
  0.5525116050080214  0.9142950790018531  0.4375093980001949
  0.8025116050061953  0.6642950859953984  0.2732526299987441
  0.8025116050061953  0.6642950859953984  0.6017661650001642
 
  0.00000000E+00  0.00000000E+00  0.00000000E+00
  0.00000000E+00  0.00000000E+00  0.00000000E+00
  0.00000000E+00  0.00000000E+00  0.00000000E+00
  0.00000000E+00  0.00000000E+00  0.00000000E+00
  0.00000000E+00  0.00000000E+00  0.00000000E+00
  0.00000000E+00  0.00000000E+00  0.00000000E+00
  0.00000000E+00  0.00000000E+00  0.00000000E+00
  0.00000000E+00  0.00000000E+00  0.00000000E+00
  0.00000000E+00  0.00000000E+00  0.00000000E+00
  0.00000000E+00  0.00000000E+00  0.00000000E+00
  0.00000000E+00  0.00000000E+00  0.00000000E+00
  0.00000000E+00  0.00000000E+00  0.00000000E+00
  0.00000000E+00  0.00000000E+00  0.00000000E+00
  0.00000000E+00  0.00000000E+00  0.00000000E+00
  0.00000000E+00  0.00000000E+00  0.00000000E+00
  0.00000000E+00  0.00000000E+00  0.00000000E+00
  0.00000000E+00  0.00000000E+00  0.00000000E+00
  0.00000000E+00  0.00000000E+00  0.00000000E+00
  0.00000000E+00  0.00000000E+00  0.00000000E+00
  0.00000000E+00  0.00000000E+00  0.00000000E+00
  0.00000000E+00  0.00000000E+00  0.00000000E+00
  0.00000000E+00  0.00000000E+00  0.00000000E+00
  0.00000000E+00  0.00000000E+00  0.00000000E+00
  0.00000000E+00  0.00000000E+00  0.00000000E+00
  0.00000000E+00  0.00000000E+00  0.00000000E+00
  0.00000000E+00  0.00000000E+00  0.00000000E+00
  0.00000000E+00  0.00000000E+00  0.00000000E+00
  0.00000000E+00  0.00000000E+00  0.00000000E+00
  0.00000000E+00  0.00000000E+00  0.00000000E+00
  0.00000000E+00  0.00000000E+00  0.00000000E+00
  0.00000000E+00  0.00000000E+00  0.00000000E+00
  0.00000000E+00  0.00000000E+00  0.00000000E+00
  0.00000000E+00  0.00000000E+00  0.00000000E+00
  0.00000000E+00  0.00000000E+00  0.00000000E+00
  0.00000000E+00  0.00000000E+00  0.00000000E+00
  0.00000000E+00  0.00000000E+00  0.00000000E+00
  0.00000000E+00  0.00000000E+00  0.00000000E+00
  0.00000000E+00  0.00000000E+00  0.00000000E+00
  0.00000000E+00  0.00000000E+00  0.00000000E+00
  0.00000000E+00  0.00000000E+00  0.00000000E+00
  0.00000000E+00  0.00000000E+00  0.00000000E+00
  0.00000000E+00  0.00000000E+00  0.00000000E+00
  0.00000000E+00  0.00000000E+00  0.00000000E+00
  0.00000000E+00  0.00000000E+00  0.00000000E+00
  0.00000000E+00  0.00000000E+00  0.00000000E+00
  0.00000000E+00  0.00000000E+00  0.00000000E+00
  0.00000000E+00  0.00000000E+00  0.00000000E+00
  0.00000000E+00  0.00000000E+00  0.00000000E+00
  0.00000000E+00  0.00000000E+00  0.00000000E+00
  0.00000000E+00  0.00000000E+00  0.00000000E+00
  0.00000000E+00  0.00000000E+00  0.00000000E+00
  0.00000000E+00  0.00000000E+00  0.00000000E+00
  0.00000000E+00  0.00000000E+00  0.00000000E+00
  0.00000000E+00  0.00000000E+00  0.00000000E+00
  0.00000000E+00  0.00000000E+00  0.00000000E+00
  0.00000000E+00  0.00000000E+00  0.00000000E+00
  0.00000000E+00  0.00000000E+00  0.00000000E+00
  0.00000000E+00  0.00000000E+00  0.00000000E+00
  0.00000000E+00  0.00000000E+00  0.00000000E+00
  0.00000000E+00  0.00000000E+00  0.00000000E+00
  0.00000000E+00  0.00000000E+00  0.00000000E+00
  0.00000000E+00  0.00000000E+00  0.00000000E+00
  0.00000000E+00  0.00000000E+00  0.00000000E+00
  0.00000000E+00  0.00000000E+00  0.00000000E+00
  0.00000000E+00  0.00000000E+00  0.00000000E+00
  0.00000000E+00  0.00000000E+00  0.00000000E+00
  0.00000000E+00  0.00000000E+00  0.00000000E+00
  0.00000000E+00  0.00000000E+00  0.00000000E+00
  0.00000000E+00  0.00000000E+00  0.00000000E+00
  0.00000000E+00  0.00000000E+00  0.00000000E+00
  0.00000000E+00  0.00000000E+00  0.00000000E+00
  0.00000000E+00  0.00000000E+00  0.00000000E+00
  0.00000000E+00  0.00000000E+00  0.00000000E+00
  0.00000000E+00  0.00000000E+00  0.00000000E+00
  0.00000000E+00  0.00000000E+00  0.00000000E+00
  0.00000000E+00  0.00000000E+00  0.00000000E+00
  0.00000000E+00  0.00000000E+00  0.00000000E+00
  0.00000000E+00  0.00000000E+00  0.00000000E+00
  0.00000000E+00  0.00000000E+00  0.00000000E+00
  0.00000000E+00  0.00000000E+00  0.00000000E+00
  0.00000000E+00  0.00000000E+00  0.00000000E+00
  0.00000000E+00  0.00000000E+00  0.00000000E+00
  0.00000000E+00  0.00000000E+00  0.00000000E+00
  0.00000000E+00  0.00000000E+00  0.00000000E+00
  0.00000000E+00  0.00000000E+00  0.00000000E+00
  0.00000000E+00  0.00000000E+00  0.00000000E+00
  0.00000000E+00  0.00000000E+00  0.00000000E+00
  0.00000000E+00  0.00000000E+00  0.00000000E+00
  0.00000000E+00  0.00000000E+00  0.00000000E+00
  0.00000000E+00  0.00000000E+00  0.00000000E+00
  0.00000000E+00  0.00000000E+00  0.00000000E+00
  0.00000000E+00  0.00000000E+00  0.00000000E+00
  0.00000000E+00  0.00000000E+00  0.00000000E+00
  0.00000000E+00  0.00000000E+00  0.00000000E+00
  0.00000000E+00  0.00000000E+00  0.00000000E+00
  0.00000000E+00  0.00000000E+00  0.00000000E+00
