Structure 1 made from -121-2.xsd file   
   1.00000000000000     
     9.4251025535000004    3.5732980426999998    0.0000000000000000
     0.0000000000000000   10.0797329848999997    0.0000000000000000
     0.0000000000000000    0.0000000000000000   20.4938792702999990
   Ni   S 
    36    36
Direct
  0.3743321370000032  0.7513622100000035  0.0947910940000014
  0.5246006489999999  0.6010936979999997  0.2229026320000003
  0.6748691620000002  0.4508251849999994  0.3510141699999991
  0.8251376739999969  0.3005566730000027  0.4791257079999980
  0.6074864619999971  0.1848745519999966  0.0093834010000009
  0.7577549740000009  0.0346060390000034  0.1374949400000034
  0.0582919989999979  0.7340690139999992  0.3937180160000011
  0.9080234870000012  0.8843375269999996  0.2656064780000023
  0.1411778120000022  0.3178498680000033  0.1801987859999983
  0.2914463239999989  0.1675813559999995  0.3083103239999971
  0.4417148369999992  0.0173128429999991  0.4364218620000031
  0.9909092990000019  0.4681183809999965  0.0520872479999994
  0.0099399890000029  0.1157543579999967  0.4114300339999986
  0.5591344520000021  0.5665598949999975  0.0270954189999983
  0.7094029639999988  0.4162913830000008  0.1552069580000008
  0.8596714769999991  0.2660228700000005  0.2833184959999997
  0.0928258020000001  0.6995352120000007  0.1979108040000028
  0.2430943139999968  0.5492666990000004  0.3260223420000017
  0.3933628260000006  0.3989981869999966  0.4541338800000005
  0.9425572889999998  0.8498037239999974  0.0697992659999969
  0.3259801270000011  0.1330475529999973  0.1125031119999989
  0.4762486389999978  0.9827790410000006  0.2406146499999977
  0.6265171510000016  0.8325105289999968  0.3687261879999966
  0.7767856640000019  0.6822420160000036  0.4968377260000025
  0.0496418319999989  0.3402585150000021  0.4452778710000018
  0.5988362940000016  0.7910640520000030  0.0609432569999981
  0.7491048070000019  0.6407955399999992  0.1890547949999970
  0.8993733189999986  0.4905270280000025  0.3171663330000030
  0.9822591320000029  0.0743078819999994  0.1036471030000001
  0.1325276439999996  0.9240393689999991  0.2317586409999990
  0.2827961569999999  0.7737708570000024  0.3598701789999978
  0.4330646689999966  0.6235023440000020  0.4879817169999967
  0.2154134569999968  0.5078202230000031  0.0182394099999996
  0.3656819690000006  0.3575517109999993  0.1463509490000021
  0.5159504820000009  0.2072831979999989  0.2744624870000010
  0.6662189939999976  0.0570146860000023  0.4025740249999998
  0.0638215629999976  0.2620847840000025  0.3412340490000005
  0.2140900759999980  0.1118162710000021  0.4693455869999994
  0.7632845380000006  0.5626218080000029  0.0850109730000028
  0.9135530510000009  0.4123532959999991  0.2131225110000017
  0.1467073760000019  0.8458656379999994  0.1277148189999977
  0.2969758879999986  0.6955971249999990  0.2558263569999966
  0.4472444009999990  0.5453286130000023  0.3839378950000025
  0.5975129130000028  0.3950601000000020  0.5120494330000014
  0.3798617010000029  0.2793779790000031  0.0423071270000008
  0.5301302129999996  0.1291094669999993  0.1704186649999997
  0.6803987260000000  0.9788409539999989  0.2985302029999986
  0.8306672379999966  0.8285724420000022  0.4266417409999974
  0.3776956970000001  0.9482106490000035  0.0431005650000031
  0.5279642100000004  0.7979421369999997  0.1712121030000020
  0.6782327219999971  0.6476736250000030  0.2993236410000009
  0.8285012349999974  0.4974051120000027  0.4274351789999997
  0.7611185350000014  0.2314544789999999  0.0858044109999980
  0.9113870469999981  0.0811859659999996  0.2139159489999969
  0.0616555599999984  0.9309174540000029  0.3420274870000028
  0.2119240720000022  0.7806489410000026  0.4701390250000017
  0.1445413719999991  0.5146983079999998  0.1285082570000000
  0.2948098849999994  0.3644297949999995  0.2566197949999989
  0.4450783970000032  0.2141612830000028  0.3847313329999977
  0.9942728600000024  0.6649668199999965  0.0003967190000012
  0.3271408620000003  0.6623354849999998  0.0000000000000000
  0.4774093739999969  0.5120669730000031  0.1281115379999989
  0.6276778869999973  0.3617984600000028  0.2562230759999977
  0.7779463990000011  0.2115299479999990  0.3843346139999966
  0.0111007240000021  0.6450422890000027  0.2989269219999997
  0.1613692359999988  0.4947737769999989  0.4270384599999986
  0.7105636989999979  0.9455793139999997  0.0427038460000020
  0.8608322119999983  0.7953108020000030  0.1708153840000008
  0.0939865369999993  0.2288231429999996  0.0854076919999969
  0.2442550490000031  0.0785546310000029  0.2135192300000028
  0.3945235609999997  0.9282861189999991  0.3416307680000017
  0.5447920740000001  0.7780176059999988  0.4697423060000006
 
  0.00000000E+00  0.00000000E+00  0.00000000E+00
  0.00000000E+00  0.00000000E+00  0.00000000E+00
  0.00000000E+00  0.00000000E+00  0.00000000E+00
  0.00000000E+00  0.00000000E+00  0.00000000E+00
  0.00000000E+00  0.00000000E+00  0.00000000E+00
  0.00000000E+00  0.00000000E+00  0.00000000E+00
  0.00000000E+00  0.00000000E+00  0.00000000E+00
  0.00000000E+00  0.00000000E+00  0.00000000E+00
  0.00000000E+00  0.00000000E+00  0.00000000E+00
  0.00000000E+00  0.00000000E+00  0.00000000E+00
  0.00000000E+00  0.00000000E+00  0.00000000E+00
  0.00000000E+00  0.00000000E+00  0.00000000E+00
  0.00000000E+00  0.00000000E+00  0.00000000E+00
  0.00000000E+00  0.00000000E+00  0.00000000E+00
  0.00000000E+00  0.00000000E+00  0.00000000E+00
  0.00000000E+00  0.00000000E+00  0.00000000E+00
  0.00000000E+00  0.00000000E+00  0.00000000E+00
  0.00000000E+00  0.00000000E+00  0.00000000E+00
  0.00000000E+00  0.00000000E+00  0.00000000E+00
  0.00000000E+00  0.00000000E+00  0.00000000E+00
  0.00000000E+00  0.00000000E+00  0.00000000E+00
  0.00000000E+00  0.00000000E+00  0.00000000E+00
  0.00000000E+00  0.00000000E+00  0.00000000E+00
  0.00000000E+00  0.00000000E+00  0.00000000E+00
  0.00000000E+00  0.00000000E+00  0.00000000E+00
  0.00000000E+00  0.00000000E+00  0.00000000E+00
  0.00000000E+00  0.00000000E+00  0.00000000E+00
  0.00000000E+00  0.00000000E+00  0.00000000E+00
  0.00000000E+00  0.00000000E+00  0.00000000E+00
  0.00000000E+00  0.00000000E+00  0.00000000E+00
  0.00000000E+00  0.00000000E+00  0.00000000E+00
  0.00000000E+00  0.00000000E+00  0.00000000E+00
  0.00000000E+00  0.00000000E+00  0.00000000E+00
  0.00000000E+00  0.00000000E+00  0.00000000E+00
  0.00000000E+00  0.00000000E+00  0.00000000E+00
  0.00000000E+00  0.00000000E+00  0.00000000E+00
  0.00000000E+00  0.00000000E+00  0.00000000E+00
  0.00000000E+00  0.00000000E+00  0.00000000E+00
  0.00000000E+00  0.00000000E+00  0.00000000E+00
  0.00000000E+00  0.00000000E+00  0.00000000E+00
  0.00000000E+00  0.00000000E+00  0.00000000E+00
  0.00000000E+00  0.00000000E+00  0.00000000E+00
  0.00000000E+00  0.00000000E+00  0.00000000E+00
  0.00000000E+00  0.00000000E+00  0.00000000E+00
  0.00000000E+00  0.00000000E+00  0.00000000E+00
  0.00000000E+00  0.00000000E+00  0.00000000E+00
  0.00000000E+00  0.00000000E+00  0.00000000E+00
  0.00000000E+00  0.00000000E+00  0.00000000E+00
  0.00000000E+00  0.00000000E+00  0.00000000E+00
  0.00000000E+00  0.00000000E+00  0.00000000E+00
  0.00000000E+00  0.00000000E+00  0.00000000E+00
  0.00000000E+00  0.00000000E+00  0.00000000E+00
  0.00000000E+00  0.00000000E+00  0.00000000E+00
  0.00000000E+00  0.00000000E+00  0.00000000E+00
  0.00000000E+00  0.00000000E+00  0.00000000E+00
  0.00000000E+00  0.00000000E+00  0.00000000E+00
  0.00000000E+00  0.00000000E+00  0.00000000E+00
  0.00000000E+00  0.00000000E+00  0.00000000E+00
  0.00000000E+00  0.00000000E+00  0.00000000E+00
  0.00000000E+00  0.00000000E+00  0.00000000E+00
  0.00000000E+00  0.00000000E+00  0.00000000E+00
  0.00000000E+00  0.00000000E+00  0.00000000E+00
  0.00000000E+00  0.00000000E+00  0.00000000E+00
  0.00000000E+00  0.00000000E+00  0.00000000E+00
  0.00000000E+00  0.00000000E+00  0.00000000E+00
  0.00000000E+00  0.00000000E+00  0.00000000E+00
  0.00000000E+00  0.00000000E+00  0.00000000E+00
  0.00000000E+00  0.00000000E+00  0.00000000E+00
  0.00000000E+00  0.00000000E+00  0.00000000E+00
  0.00000000E+00  0.00000000E+00  0.00000000E+00
  0.00000000E+00  0.00000000E+00  0.00000000E+00
  0.00000000E+00  0.00000000E+00  0.00000000E+00
