Structure 1 made from -121-2.xsd file
1.0
        9.4251025535        3.5732980427        0.0000000000
        0.0000000000       10.0797329849        0.0000000000
        0.0000000000        0.0000000000       20.4938792703
   Ni    S
   36   36
Direct
     0.374332137     0.751362210     0.094791094
     0.524600649     0.601093698     0.222902632
     0.674869162     0.450825185     0.351014170
     0.825137674     0.300556673     0.479125708
     0.607486462     0.184874552     0.009383401
     0.757754974     0.034606039     0.137494940
     0.058291999     0.734069014     0.393718016
     0.908023487     0.884337527     0.265606478
     0.141177812     0.317849868     0.180198786
     0.291446324     0.167581356     0.308310324
     0.441714837     0.017312843     0.436421862
     0.990909299     0.468118381     0.052087248
     0.009939989     0.115754358     0.411430034
     0.559134452     0.566559895     0.027095419
     0.709402964     0.416291383     0.155206958
     0.859671477     0.266022870     0.283318496
     0.092825802     0.699535212     0.197910804
     0.243094314     0.549266699     0.326022342
     0.393362826     0.398998187     0.454133880
     0.942557289     0.849803724     0.069799266
     0.325980127     0.133047553     0.112503112
     0.476248639     0.982779041     0.240614650
     0.626517151     0.832510529     0.368726188
     0.776785664     0.682242016     0.496837726
     0.049641832     0.340258515     0.445277871
     0.598836294     0.791064052     0.060943257
     0.749104807     0.640795540     0.189054795
     0.899373319     0.490527028     0.317166333
     0.982259132     0.074307882     0.103647103
     0.132527644     0.924039369     0.231758641
     0.282796157     0.773770857     0.359870179
     0.433064669     0.623502344     0.487981717
     0.215413457     0.507820223     0.018239410
     0.365681969     0.357551711     0.146350949
     0.515950482     0.207283198     0.274462487
     0.666218994     0.057014686     0.402574025
     0.063821563     0.262084784     0.341234049
     0.214090076     0.111816271     0.469345587
     0.763284538     0.562621808     0.085010973
     0.913553051     0.412353296     0.213122511
     0.146707376     0.845865638     0.127714819
     0.296975888     0.695597125     0.255826357
     0.447244401     0.545328613     0.383937895
     0.597512913     0.395060100     0.512049433
     0.379861701     0.279377979     0.042307127
     0.530130213     0.129109467     0.170418665
     0.680398726     0.978840954     0.298530203
     0.830667238     0.828572442     0.426641741
     0.377695697     0.948210649     0.043100565
     0.527964210     0.797942137     0.171212103
     0.678232722     0.647673625     0.299323641
     0.828501235     0.497405112     0.427435179
     0.761118535     0.231454479     0.085804411
     0.911387047     0.081185966     0.213915949
     0.061655560     0.930917454     0.342027487
     0.211924072     0.780648941     0.470139025
     0.144541372     0.514698308     0.128508257
     0.294809885     0.364429795     0.256619795
     0.445078397     0.214161283     0.384731333
     0.994272860     0.664966820     0.000396719
     0.327140862     0.662335485     0.000000000
     0.477409374     0.512066973     0.128111538
     0.627677887     0.361798460     0.256223076
     0.777946399     0.211529948     0.384334614
     0.011100724     0.645042289     0.298926922
     0.161369236     0.494773777     0.427038460
     0.710563699     0.945579314     0.042703846
     0.860832212     0.795310802     0.170815384
     0.093986537     0.228823143     0.085407692
     0.244255049     0.078554631     0.213519230
     0.394523561     0.928286119     0.341630768
     0.544792074     0.778017606     0.469742306
