Structure 1 made from -111-4.xsd file   
   1.00000000000000     
    10.0628203370999998    5.0445621212000002    0.0000000000000000
     0.0000000000000000   11.2564630381999997    0.0000000000000000
     0.0000000000000000    0.0000000000000000   20.9353694063999995
   Ni   S 
    48    48
Direct
  0.2609206990000033  0.4787803489999973  0.3175410910000025
  0.3548805659999985  0.3848204820000021  0.4577849969999974
  0.0730009660000022  0.1667000959999996  0.0370532809999986
  0.1669608329999974  0.0727402300000008  0.1772971859999970
  0.1802792020000012  0.4273188499999989  0.0000000000000000
  0.2742390680000000  0.3333589829999966  0.1402439049999984
  0.3681989350000023  0.2393991169999978  0.2804878099999968
  0.4621588010000011  0.1454392509999991  0.4207317150000023
  0.0003019460000004  0.3715021129999982  0.2804878099999968
  0.0942618119999992  0.2775422469999995  0.4207317150000023
  0.4063420640000004  0.4654619789999970  0.1402439049999984
  0.3123821980000017  0.0594218609999970  0.0000000000000000
  0.7609206990000033  0.4787803489999973  0.3175410910000025
  0.8548805659999985  0.3848204820000021  0.4577849969999974
  0.5730009660000022  0.1667000959999996  0.0370532809999986
  0.6669608329999974  0.0727402300000008  0.1772971859999970
  0.6802792020000012  0.4273188499999989  0.0000000000000000
  0.7742390680000000  0.3333589829999966  0.1402439049999984
  0.8681989350000023  0.2393991169999978  0.2804878099999968
  0.9621588010000011  0.1454392509999991  0.4207317150000023
  0.5003019460000004  0.3715021129999982  0.2804878099999968
  0.5942618119999992  0.2775422469999995  0.4207317150000023
  0.9063420640000004  0.4654619789999970  0.1402439049999984
  0.8123821980000017  0.0594218609999970  0.0000000000000000
  0.2609206990000033  0.9787803489999973  0.3175410910000025
  0.3548805659999985  0.8848204820000021  0.4577849969999974
  0.0730009660000022  0.6667000959999996  0.0370532809999986
  0.1669608329999974  0.5727402300000008  0.1772971859999970
  0.1802792020000012  0.9273188499999989  0.0000000000000000
  0.2742390680000000  0.8333589829999966  0.1402439049999984
  0.3681989350000023  0.7393991169999978  0.2804878099999968
  0.4621588010000011  0.6454392509999991  0.4207317150000023
  0.0003019460000004  0.8715021129999982  0.2804878099999968
  0.0942618119999992  0.7775422469999995  0.4207317150000023
  0.4063420640000004  0.9654619789999970  0.1402439049999984
  0.3123821980000017  0.5594218609999970  0.0000000000000000
  0.7609206990000033  0.9787803489999973  0.3175410910000025
  0.8548805659999985  0.8848204820000021  0.4577849969999974
  0.5730009660000022  0.6667000959999996  0.0370532809999986
  0.6669608329999974  0.5727402300000008  0.1772971859999970
  0.6802792020000012  0.9273188499999989  0.0000000000000000
  0.7742390680000000  0.8333589829999966  0.1402439049999984
  0.8681989350000023  0.7393991169999978  0.2804878099999968
  0.9621588010000011  0.6454392509999991  0.4207317150000023
  0.5003019460000004  0.8715021129999982  0.2804878099999968
  0.5942618119999992  0.7775422469999995  0.4207317150000023
  0.9063420640000004  0.9654619789999970  0.1402439049999984
  0.8123821980000017  0.5594218609999970  0.0000000000000000
  0.0728776389999979  0.1668234240000004  0.3349132909999994
  0.1668375060000002  0.0728635569999980  0.4751571959999978
  0.3849578909999991  0.3547431559999978  0.0544254810000027
  0.4789177580000015  0.2607832899999991  0.1946693860000011
  0.0302334280000025  0.3776826289999988  0.5223394530000007
  0.4362735469999990  0.4716424960000012  0.3820955480000023
  0.2483538139999979  0.1595622430000034  0.1016077379999984
  0.3423136810000003  0.0656023769999976  0.2418516429999968
  0.0801388189999983  0.4913472340000027  0.1016077379999984
  0.1740986860000007  0.3973873670000003  0.2418516429999968
  0.2680585519999994  0.3034275010000016  0.3820955480000023
  0.3620184190000018  0.2094676339999992  0.5223394530000007
  0.5728776389999979  0.1668234240000004  0.3349132909999994
  0.6668375060000002  0.0728635569999980  0.4751571959999978
  0.8849578909999991  0.3547431559999978  0.0544254810000027
  0.9789177580000015  0.2607832899999991  0.1946693860000011
  0.5302334280000025  0.3776826289999988  0.5223394530000007
  0.9362735469999990  0.4716424960000012  0.3820955480000023
  0.7483538139999979  0.1595622430000034  0.1016077379999984
  0.8423136810000003  0.0656023769999976  0.2418516429999968
  0.5801388189999983  0.4913472340000027  0.1016077379999984
  0.6740986860000007  0.3973873670000003  0.2418516429999968
  0.7680585519999994  0.3034275010000016  0.3820955480000023
  0.8620184190000018  0.2094676339999992  0.5223394530000007
  0.0728776389999979  0.6668234240000004  0.3349132909999994
  0.1668375060000002  0.5728635569999980  0.4751571959999978
  0.3849578909999991  0.8547431559999978  0.0544254810000027
  0.4789177580000015  0.7607832899999991  0.1946693860000011
  0.0302334280000025  0.8776826289999988  0.5223394530000007
  0.4362735469999990  0.9716424960000012  0.3820955480000023
  0.2483538139999979  0.6595622430000034  0.1016077379999984
  0.3423136810000003  0.5656023769999976  0.2418516429999968
  0.0801388189999983  0.9913472340000027  0.1016077379999984
  0.1740986860000007  0.8973873670000003  0.2418516429999968
  0.2680585519999994  0.8034275010000016  0.3820955480000023
  0.3620184190000018  0.7094676339999992  0.5223394530000007
  0.5728776389999979  0.6668234240000004  0.3349132909999994
  0.6668375060000002  0.5728635569999980  0.4751571959999978
  0.8849578909999991  0.8547431559999978  0.0544254810000027
  0.9789177580000015  0.7607832899999991  0.1946693860000011
  0.5302334280000025  0.8776826289999988  0.5223394530000007
  0.9362735469999990  0.9716424960000012  0.3820955480000023
  0.7483538139999979  0.6595622430000034  0.1016077379999984
  0.8423136810000003  0.5656023769999976  0.2418516429999968
  0.5801388189999983  0.9913472340000027  0.1016077379999984
  0.6740986860000007  0.8973873670000003  0.2418516429999968
  0.7680585519999994  0.8034275010000016  0.3820955480000023
  0.8620184190000018  0.7094676339999992  0.5223394530000007
 
  0.00000000E+00  0.00000000E+00  0.00000000E+00
  0.00000000E+00  0.00000000E+00  0.00000000E+00
  0.00000000E+00  0.00000000E+00  0.00000000E+00
  0.00000000E+00  0.00000000E+00  0.00000000E+00
  0.00000000E+00  0.00000000E+00  0.00000000E+00
  0.00000000E+00  0.00000000E+00  0.00000000E+00
  0.00000000E+00  0.00000000E+00  0.00000000E+00
  0.00000000E+00  0.00000000E+00  0.00000000E+00
  0.00000000E+00  0.00000000E+00  0.00000000E+00
  0.00000000E+00  0.00000000E+00  0.00000000E+00
  0.00000000E+00  0.00000000E+00  0.00000000E+00
  0.00000000E+00  0.00000000E+00  0.00000000E+00
  0.00000000E+00  0.00000000E+00  0.00000000E+00
  0.00000000E+00  0.00000000E+00  0.00000000E+00
  0.00000000E+00  0.00000000E+00  0.00000000E+00
  0.00000000E+00  0.00000000E+00  0.00000000E+00
  0.00000000E+00  0.00000000E+00  0.00000000E+00
  0.00000000E+00  0.00000000E+00  0.00000000E+00
  0.00000000E+00  0.00000000E+00  0.00000000E+00
  0.00000000E+00  0.00000000E+00  0.00000000E+00
  0.00000000E+00  0.00000000E+00  0.00000000E+00
  0.00000000E+00  0.00000000E+00  0.00000000E+00
  0.00000000E+00  0.00000000E+00  0.00000000E+00
  0.00000000E+00  0.00000000E+00  0.00000000E+00
  0.00000000E+00  0.00000000E+00  0.00000000E+00
  0.00000000E+00  0.00000000E+00  0.00000000E+00
  0.00000000E+00  0.00000000E+00  0.00000000E+00
  0.00000000E+00  0.00000000E+00  0.00000000E+00
  0.00000000E+00  0.00000000E+00  0.00000000E+00
  0.00000000E+00  0.00000000E+00  0.00000000E+00
  0.00000000E+00  0.00000000E+00  0.00000000E+00
  0.00000000E+00  0.00000000E+00  0.00000000E+00
  0.00000000E+00  0.00000000E+00  0.00000000E+00
  0.00000000E+00  0.00000000E+00  0.00000000E+00
  0.00000000E+00  0.00000000E+00  0.00000000E+00
  0.00000000E+00  0.00000000E+00  0.00000000E+00
  0.00000000E+00  0.00000000E+00  0.00000000E+00
  0.00000000E+00  0.00000000E+00  0.00000000E+00
  0.00000000E+00  0.00000000E+00  0.00000000E+00
  0.00000000E+00  0.00000000E+00  0.00000000E+00
  0.00000000E+00  0.00000000E+00  0.00000000E+00
  0.00000000E+00  0.00000000E+00  0.00000000E+00
  0.00000000E+00  0.00000000E+00  0.00000000E+00
  0.00000000E+00  0.00000000E+00  0.00000000E+00
  0.00000000E+00  0.00000000E+00  0.00000000E+00
  0.00000000E+00  0.00000000E+00  0.00000000E+00
  0.00000000E+00  0.00000000E+00  0.00000000E+00
  0.00000000E+00  0.00000000E+00  0.00000000E+00
  0.00000000E+00  0.00000000E+00  0.00000000E+00
  0.00000000E+00  0.00000000E+00  0.00000000E+00
  0.00000000E+00  0.00000000E+00  0.00000000E+00
  0.00000000E+00  0.00000000E+00  0.00000000E+00
  0.00000000E+00  0.00000000E+00  0.00000000E+00
  0.00000000E+00  0.00000000E+00  0.00000000E+00
  0.00000000E+00  0.00000000E+00  0.00000000E+00
  0.00000000E+00  0.00000000E+00  0.00000000E+00
  0.00000000E+00  0.00000000E+00  0.00000000E+00
  0.00000000E+00  0.00000000E+00  0.00000000E+00
  0.00000000E+00  0.00000000E+00  0.00000000E+00
  0.00000000E+00  0.00000000E+00  0.00000000E+00
  0.00000000E+00  0.00000000E+00  0.00000000E+00
  0.00000000E+00  0.00000000E+00  0.00000000E+00
  0.00000000E+00  0.00000000E+00  0.00000000E+00
  0.00000000E+00  0.00000000E+00  0.00000000E+00
  0.00000000E+00  0.00000000E+00  0.00000000E+00
  0.00000000E+00  0.00000000E+00  0.00000000E+00
  0.00000000E+00  0.00000000E+00  0.00000000E+00
  0.00000000E+00  0.00000000E+00  0.00000000E+00
  0.00000000E+00  0.00000000E+00  0.00000000E+00
  0.00000000E+00  0.00000000E+00  0.00000000E+00
  0.00000000E+00  0.00000000E+00  0.00000000E+00
  0.00000000E+00  0.00000000E+00  0.00000000E+00
  0.00000000E+00  0.00000000E+00  0.00000000E+00
  0.00000000E+00  0.00000000E+00  0.00000000E+00
  0.00000000E+00  0.00000000E+00  0.00000000E+00
  0.00000000E+00  0.00000000E+00  0.00000000E+00
  0.00000000E+00  0.00000000E+00  0.00000000E+00
  0.00000000E+00  0.00000000E+00  0.00000000E+00
  0.00000000E+00  0.00000000E+00  0.00000000E+00
  0.00000000E+00  0.00000000E+00  0.00000000E+00
  0.00000000E+00  0.00000000E+00  0.00000000E+00
  0.00000000E+00  0.00000000E+00  0.00000000E+00
  0.00000000E+00  0.00000000E+00  0.00000000E+00
  0.00000000E+00  0.00000000E+00  0.00000000E+00
  0.00000000E+00  0.00000000E+00  0.00000000E+00
  0.00000000E+00  0.00000000E+00  0.00000000E+00
  0.00000000E+00  0.00000000E+00  0.00000000E+00
  0.00000000E+00  0.00000000E+00  0.00000000E+00
  0.00000000E+00  0.00000000E+00  0.00000000E+00
  0.00000000E+00  0.00000000E+00  0.00000000E+00
  0.00000000E+00  0.00000000E+00  0.00000000E+00
  0.00000000E+00  0.00000000E+00  0.00000000E+00
  0.00000000E+00  0.00000000E+00  0.00000000E+00
  0.00000000E+00  0.00000000E+00  0.00000000E+00
  0.00000000E+00  0.00000000E+00  0.00000000E+00
  0.00000000E+00  0.00000000E+00  0.00000000E+00
