Structure 1 made from -111-4.xsd file
1.0
       10.0628203371        5.0445621212        0.0000000000
        0.0000000000       11.2564630382        0.0000000000
        0.0000000000        0.0000000000       20.9353694064
   Ni    S
   48   48
Direct
     0.260920699     0.478780349     0.317541091
     0.354880566     0.384820482     0.457784997
     0.073000966     0.166700096     0.037053281
     0.166960833     0.072740230     0.177297186
     0.180279202     0.427318850     0.000000000
     0.274239068     0.333358983     0.140243905
     0.368198935     0.239399117     0.280487810
     0.462158801     0.145439251     0.420731715
     0.000301946     0.371502113     0.280487810
     0.094261812     0.277542247     0.420731715
     0.406342064     0.465461979     0.140243905
     0.312382198     0.059421861     0.000000000
     0.760920699     0.478780349     0.317541091
     0.854880566     0.384820482     0.457784997
     0.573000966     0.166700096     0.037053281
     0.666960833     0.072740230     0.177297186
     0.680279202     0.427318850     0.000000000
     0.774239068     0.333358983     0.140243905
     0.868198935     0.239399117     0.280487810
     0.962158801     0.145439251     0.420731715
     0.500301946     0.371502113     0.280487810
     0.594261812     0.277542247     0.420731715
     0.906342064     0.465461979     0.140243905
     0.812382198     0.059421861     0.000000000
     0.260920699     0.978780349     0.317541091
     0.354880566     0.884820482     0.457784997
     0.073000966     0.666700096     0.037053281
     0.166960833     0.572740230     0.177297186
     0.180279202     0.927318850     0.000000000
     0.274239068     0.833358983     0.140243905
     0.368198935     0.739399117     0.280487810
     0.462158801     0.645439251     0.420731715
     0.000301946     0.871502113     0.280487810
     0.094261812     0.777542247     0.420731715
     0.406342064     0.965461979     0.140243905
     0.312382198     0.559421861     0.000000000
     0.760920699     0.978780349     0.317541091
     0.854880566     0.884820482     0.457784997
     0.573000966     0.666700096     0.037053281
     0.666960833     0.572740230     0.177297186
     0.680279202     0.927318850     0.000000000
     0.774239068     0.833358983     0.140243905
     0.868198935     0.739399117     0.280487810
     0.962158801     0.645439251     0.420731715
     0.500301946     0.871502113     0.280487810
     0.594261812     0.777542247     0.420731715
     0.906342064     0.965461979     0.140243905
     0.812382198     0.559421861     0.000000000
     0.072877639     0.166823424     0.334913291
     0.166837506     0.072863557     0.475157196
     0.384957891     0.354743156     0.054425481
     0.478917758     0.260783290     0.194669386
     0.030233428     0.377682629     0.522339453
     0.436273547     0.471642496     0.382095548
     0.248353814     0.159562243     0.101607738
     0.342313681     0.065602377     0.241851643
     0.080138819     0.491347234     0.101607738
     0.174098686     0.397387367     0.241851643
     0.268058552     0.303427501     0.382095548
     0.362018419     0.209467634     0.522339453
     0.572877639     0.166823424     0.334913291
     0.666837506     0.072863557     0.475157196
     0.884957891     0.354743156     0.054425481
     0.978917758     0.260783290     0.194669386
     0.530233428     0.377682629     0.522339453
     0.936273547     0.471642496     0.382095548
     0.748353814     0.159562243     0.101607738
     0.842313681     0.065602377     0.241851643
     0.580138819     0.491347234     0.101607738
     0.674098686     0.397387367     0.241851643
     0.768058552     0.303427501     0.382095548
     0.862018419     0.209467634     0.522339453
     0.072877639     0.666823424     0.334913291
     0.166837506     0.572863557     0.475157196
     0.384957891     0.854743156     0.054425481
     0.478917758     0.760783290     0.194669386
     0.030233428     0.877682629     0.522339453
     0.436273547     0.971642496     0.382095548
     0.248353814     0.659562243     0.101607738
     0.342313681     0.565602377     0.241851643
     0.080138819     0.991347234     0.101607738
     0.174098686     0.897387367     0.241851643
     0.268058552     0.803427501     0.382095548
     0.362018419     0.709467634     0.522339453
     0.572877639     0.666823424     0.334913291
     0.666837506     0.572863557     0.475157196
     0.884957891     0.854743156     0.054425481
     0.978917758     0.760783290     0.194669386
     0.530233428     0.877682629     0.522339453
     0.936273547     0.971642496     0.382095548
     0.748353814     0.659562243     0.101607738
     0.842313681     0.565602377     0.241851643
     0.580138819     0.991347234     0.101607738
     0.674098686     0.897387367     0.241851643
     0.768058552     0.803427501     0.382095548
     0.862018419     0.709467634     0.522339453
