Type_036 Type_136 
1.0
1.0079732984900000e+01 0.0000000000000000e+00 0.0000000000000000e+00 
3.5732980426999998e+00 9.4251025535000004e+00 0.0000000000000000e+00 
0.0000000000000000e+00 0.0000000000000000e+00 2.0510139881800001e+01 
Type_0 Type_1 
36 36 
Cartesian
   6.4580091941    7.0816657522    1.9507675415
   7.4357214877    5.6653696066    4.5762699324
   8.4134337949    4.2490734704    7.2017723234
   8.5028804792    3.5237911545    9.4119014154
   8.3072305318    0.8266017808    0.4580016483
   7.7616255985    0.3261653346    2.8259350051
   3.2106152471    6.9186756064    8.0769397870
  12.3126359384    8.3349717520    5.4514373961
   2.5588070506    2.9957674706    3.7011024688
   3.5365193478    1.5794713344    6.3266048597
   4.1055802006    0.4468028525    8.6596645188
  11.3710098604    4.4340470376    2.4227263380
   0.4654384622    1.1903613288    8.1151764931
   7.7726025798    5.3318094479    0.9963110547
   8.6381257309    3.9235888450    3.1889229480
   9.6158380346    2.5072926994    5.8144253595
   3.4353071932    6.5931909810    4.0640904116
   4.4130194868    5.1768948354    6.6895928231
   5.2276393010    3.9235807611    8.9413378211
  12.5373278708    8.0094871171    1.4385880207
   7.6195797551    9.4219119768    2.7123961585
   8.3122216302    9.2627931169    4.9392578753
   9.2899339375    7.8464969808    7.5647602868
   9.5444651037    6.5135963313    9.5049554414
   1.7508574052    3.4031403537    8.7874430878
   9.1205066697    7.3882607521    1.6819551495
   9.8405299722    6.0395635484    3.8825964505
  10.8182422694    4.6232674122    6.5080988414
  10.1664340729    0.7003592764    2.1322615026
   4.6377114244    8.7091656844    4.7577639141
   5.6154237316    7.2928695482    7.3832663051
   6.8218865083    6.1614601807    9.5915810759
   4.2300037442    6.2303122028    1.4237701397
   5.9124255235    3.4004767596    3.8703824312
   5.9413278288    1.9536652668    5.6329313778
   6.8471831316    0.6452159854    8.0006604214
   1.5798114469    2.4701758255    7.0013397092
   2.2789212508    1.3965383113    9.1949059903
   9.7041198410    5.3027681073    1.7503349273
  10.6818321382    3.8864719711    4.3758373183
   4.5013012932    7.9723702433    2.6255023910
   5.4790136004    6.5560741071    5.2510047819
   6.4567258976    5.1397779710    7.8765071729
   6.7970217045    4.1986361707   10.2921300563
   3.5620462996    9.3078066226    0.2438997421
   5.8049177011    1.2168698352    3.5006698546
  10.3559280375    9.2256762431    6.1261722456
  10.7332560800    8.1792067349    8.9496797652
   7.5471172289    8.4847700250    0.9025296726
   8.1730234298    7.5206863411    3.5169304781
   9.1507357270    6.1043902049    6.1424328691
  10.1284480307    4.6880940593    8.7679352600
   8.5581708937    2.1198036406    2.0410836195
   9.4766398241    0.7651859235    4.3920979418
   3.9479171892    8.7739923409    7.0176003327
   4.9010627318    7.0060656501    9.2726312885
   3.2961089827    4.8510842051    2.6417630145
   4.2738212864    3.4347880595    5.2672654054
   5.2515335835    2.0184919233    7.8927677964
   2.4932197022    6.2744327390    0.3998948489
   5.9588340715    6.0183164789    0.2715642833
   6.6419270178    4.8262836029    2.6336326925
   7.6196393215    3.4099874573    5.2591351039
   8.5973516187    1.9936913211    7.8846374949
   2.4168207737    6.0795895932    6.1343025676
   3.3549869119    4.7946057536    8.4767292195
  10.5950844236    8.7882224781    1.0915362891
  11.5188414649    7.4958857388    3.5088001561
   1.4410128916    2.3434581297    2.1277166486
   2.7427248744    0.7403853213    4.3839676198
   7.2937352244    8.7491917387    7.0094700312
   8.0330702205    7.8839813421    9.4155968377
