Structure 19 made from -112-7.xsd file  
   1.00000000000000     
    16.8846940542000006    0.0000000000000000    0.0000000000000000
     0.0000000000000000    9.5784099999999999    0.0000000000000000
     0.0000000000000000    0.0000000000000000   16.6546456851000002
   Ni   S 
    37    37
Direct
  0.7800463049999991  0.1452969569999993  0.1234707970000031
  0.8146142619999992  0.1452969569999993  0.3086769920000023
  0.2627623260000007  0.6452969569999993  0.0308676989999981
  0.2973302839999974  0.6452969569999993  0.2160738939999973
  0.4351903190000002  0.1452969569999993  0.0617353980000033
  0.4697582760000003  0.1452969569999993  0.2469415939999990
  0.9524742979999985  0.6452969569999993  0.1543384960000012
  0.9870422549999986  0.6452969569999993  0.3395446910000004
  0.0903343339999978  0.1452969569999993  0.0000000000000000
  0.1249022909999979  0.1452969569999993  0.1852061949999992
  0.1594702479999981  0.1452969569999993  0.3704123899999985
  0.6076183119999996  0.6452969569999993  0.0926030979999979
  0.6421862689999998  0.6452969569999993  0.2778092929999971
  0.9075827739999980  0.0131939569999986  0.0990045030000033
  0.3902987960000033  0.5131939569999986  0.0064014049999983
  0.4248667530000034  0.5131939569999986  0.1916075999999975
  0.4594347099999965  0.5131939569999986  0.3768137960000004
  0.5627267879999991  0.0131939569999986  0.0372691040000035
  0.5972947460000029  0.0131939569999986  0.2224752999999993
  0.0800107669999974  0.5131939569999986  0.1298722020000014
  0.1145787239999976  0.5131939569999986  0.3150783970000006
  0.2524387599999969  0.0131939569999986  0.1607399009999995
  0.2870067169999970  0.0131939569999986  0.3459460959999987
  0.7351547809999985  0.5131939569999986  0.0681368039999981
  0.7697227379999987  0.5131939569999986  0.2533429989999973
  0.9421507309999981  0.2773999570000001  0.2842106980000025
  0.3902987960000033  0.7773999570000001  0.0064014049999983
  0.4248667530000034  0.7773999570000001  0.1916075999999975
  0.4594347099999965  0.7773999570000001  0.3768137960000004
  0.5627267879999991  0.2773999570000001  0.0372691040000035
  0.5972947460000029  0.2773999570000001  0.2224752999999993
  0.0800107669999974  0.7773999570000001  0.1298722020000014
  0.1145787239999976  0.7773999570000001  0.3150783970000006
  0.2524387599999969  0.2773999570000001  0.1607399009999995
  0.2870067169999970  0.2773999570000001  0.3459460959999987
  0.7351547809999985  0.7773999570000001  0.0681368039999981
  0.7697227379999987  0.7773999570000001  0.2533429989999973
  0.0260291609999967  0.1452969569999993  0.3686992330000010
  0.9914612039999966  0.1452969569999993  0.1834930380000017
  0.4741772249999983  0.6452969569999993  0.0908899399999967
  0.5087451819999984  0.6452969569999993  0.2760961359999996
  0.6466052179999977  0.1452969569999993  0.1217576390000019
  0.6811731749999979  0.1452969569999993  0.3069638349999977
  0.1293212389999994  0.6452969569999993  0.0291545420000006
  0.1638891970000032  0.6452969569999993  0.2143607369999998
  0.1984571540000033  0.6452969569999993  0.3995669319999990
  0.3017492319999988  0.1452969569999993  0.0600222409999986
  0.3363171889999990  0.1452969569999993  0.2452284359999979
  0.8190332109999972  0.6452969569999993  0.1526253389999965
  0.8536011679999973  0.6452969569999993  0.3378315340000029
  0.7944930959999965  0.3135119570000029  0.0294413029999987
  0.8290610529999967  0.3135119570000029  0.2146474979999979
  0.3117770739999983  0.8135119570000029  0.1220444000000001
  0.3463450309999985  0.8135119570000029  0.3072505960000029
  0.4842050669999978  0.3135119570000029  0.1529121000000018
  0.5187730239999979  0.3135119570000029  0.3381182950000010
  0.0014890460000032  0.8135119570000029  0.2455151970000031
  0.9669210879999994  0.8135119570000029  0.0603090019999968
  0.1393490809999989  0.3135119570000029  0.0911767010000020
  0.1739170379999990  0.3135119570000029  0.2763828960000012
  0.6566330599999972  0.8135119570000029  0.1837797989999999
  0.6912010169999974  0.8135119570000029  0.3689859939999991
  0.3117770739999983  0.4770819570000029  0.1220444000000001
  0.3463450309999985  0.4770819570000029  0.3072505960000029
  0.7944930959999965  0.9770819570000029  0.0294413029999987
  0.8290610529999967  0.9770819570000029  0.2146474979999979
  0.0014890460000032  0.4770819570000029  0.2455151970000031
  0.9669210879999994  0.4770819570000029  0.0603090019999968
  0.4842050669999978  0.9770819570000029  0.1529121000000018
  0.5187730239999979  0.9770819570000029  0.3381182950000010
  0.6566330599999972  0.4770819570000029  0.1837797989999999
  0.6912010169999974  0.4770819570000029  0.3689859939999991
  0.1393490809999989  0.9770819570000029  0.0911767010000020
  0.1739170379999990  0.9770819570000029  0.2763828960000012
 
  0.00000000E+00  0.00000000E+00  0.00000000E+00
  0.00000000E+00  0.00000000E+00  0.00000000E+00
  0.00000000E+00  0.00000000E+00  0.00000000E+00
  0.00000000E+00  0.00000000E+00  0.00000000E+00
  0.00000000E+00  0.00000000E+00  0.00000000E+00
  0.00000000E+00  0.00000000E+00  0.00000000E+00
  0.00000000E+00  0.00000000E+00  0.00000000E+00
  0.00000000E+00  0.00000000E+00  0.00000000E+00
  0.00000000E+00  0.00000000E+00  0.00000000E+00
  0.00000000E+00  0.00000000E+00  0.00000000E+00
  0.00000000E+00  0.00000000E+00  0.00000000E+00
  0.00000000E+00  0.00000000E+00  0.00000000E+00
  0.00000000E+00  0.00000000E+00  0.00000000E+00
  0.00000000E+00  0.00000000E+00  0.00000000E+00
  0.00000000E+00  0.00000000E+00  0.00000000E+00
  0.00000000E+00  0.00000000E+00  0.00000000E+00
  0.00000000E+00  0.00000000E+00  0.00000000E+00
  0.00000000E+00  0.00000000E+00  0.00000000E+00
  0.00000000E+00  0.00000000E+00  0.00000000E+00
  0.00000000E+00  0.00000000E+00  0.00000000E+00
  0.00000000E+00  0.00000000E+00  0.00000000E+00
  0.00000000E+00  0.00000000E+00  0.00000000E+00
  0.00000000E+00  0.00000000E+00  0.00000000E+00
  0.00000000E+00  0.00000000E+00  0.00000000E+00
  0.00000000E+00  0.00000000E+00  0.00000000E+00
  0.00000000E+00  0.00000000E+00  0.00000000E+00
  0.00000000E+00  0.00000000E+00  0.00000000E+00
  0.00000000E+00  0.00000000E+00  0.00000000E+00
  0.00000000E+00  0.00000000E+00  0.00000000E+00
  0.00000000E+00  0.00000000E+00  0.00000000E+00
  0.00000000E+00  0.00000000E+00  0.00000000E+00
  0.00000000E+00  0.00000000E+00  0.00000000E+00
  0.00000000E+00  0.00000000E+00  0.00000000E+00
  0.00000000E+00  0.00000000E+00  0.00000000E+00
  0.00000000E+00  0.00000000E+00  0.00000000E+00
  0.00000000E+00  0.00000000E+00  0.00000000E+00
  0.00000000E+00  0.00000000E+00  0.00000000E+00
  0.00000000E+00  0.00000000E+00  0.00000000E+00
  0.00000000E+00  0.00000000E+00  0.00000000E+00
  0.00000000E+00  0.00000000E+00  0.00000000E+00
  0.00000000E+00  0.00000000E+00  0.00000000E+00
  0.00000000E+00  0.00000000E+00  0.00000000E+00
  0.00000000E+00  0.00000000E+00  0.00000000E+00
  0.00000000E+00  0.00000000E+00  0.00000000E+00
  0.00000000E+00  0.00000000E+00  0.00000000E+00
  0.00000000E+00  0.00000000E+00  0.00000000E+00
  0.00000000E+00  0.00000000E+00  0.00000000E+00
  0.00000000E+00  0.00000000E+00  0.00000000E+00
  0.00000000E+00  0.00000000E+00  0.00000000E+00
  0.00000000E+00  0.00000000E+00  0.00000000E+00
  0.00000000E+00  0.00000000E+00  0.00000000E+00
  0.00000000E+00  0.00000000E+00  0.00000000E+00
  0.00000000E+00  0.00000000E+00  0.00000000E+00
  0.00000000E+00  0.00000000E+00  0.00000000E+00
  0.00000000E+00  0.00000000E+00  0.00000000E+00
  0.00000000E+00  0.00000000E+00  0.00000000E+00
  0.00000000E+00  0.00000000E+00  0.00000000E+00
  0.00000000E+00  0.00000000E+00  0.00000000E+00
  0.00000000E+00  0.00000000E+00  0.00000000E+00
  0.00000000E+00  0.00000000E+00  0.00000000E+00
  0.00000000E+00  0.00000000E+00  0.00000000E+00
  0.00000000E+00  0.00000000E+00  0.00000000E+00
  0.00000000E+00  0.00000000E+00  0.00000000E+00
  0.00000000E+00  0.00000000E+00  0.00000000E+00
  0.00000000E+00  0.00000000E+00  0.00000000E+00
  0.00000000E+00  0.00000000E+00  0.00000000E+00
  0.00000000E+00  0.00000000E+00  0.00000000E+00
  0.00000000E+00  0.00000000E+00  0.00000000E+00
  0.00000000E+00  0.00000000E+00  0.00000000E+00
  0.00000000E+00  0.00000000E+00  0.00000000E+00
  0.00000000E+00  0.00000000E+00  0.00000000E+00
  0.00000000E+00  0.00000000E+00  0.00000000E+00
  0.00000000E+00  0.00000000E+00  0.00000000E+00
  0.00000000E+00  0.00000000E+00  0.00000000E+00
