Type_038 Type_138                       
   1.00000000000000     
    16.8846940542000006    0.0000000000000000    0.0000000000000000
     0.0000000000000000    9.5784099999999999    0.0000000000000000
     0.0000000000000000    0.0000000000000000   16.2994563815000006
   Ty   Ty
    38    38
Direct
  0.7800463069997861  0.1452969540038467  0.1276188879992901
  0.8030716789995438  0.1452969539934088  0.2918539022380742
  0.2242886258787706  0.6452969539934088  0.1004089157389032
  0.2973302850015926  0.6452969540038467  0.2222399440027587
  0.4697582780024945  0.1452969540038467  0.2537802959977782
  0.9524743000006950  0.6452969540038467  0.1591592400004487
  0.9687420035858594  0.6452969539934088  0.3199617627627944
  0.1826644588939317  0.1452969539934088  0.0515176038602760
  0.1249022930015968  0.1452969540038467  0.1906995920016072
  0.1040341104293248  0.1452969539934088  0.3326540410914589
  0.6076183139988842  0.6452969540038467  0.0960785359981386
  0.6421862709974775  0.6452969540038467  0.2853206489989688
  0.9097181649660513  0.0048356561057616  0.1248888865711137
  0.9430487959738443  0.0123135319745131  0.2772931750306640
  0.3934740844858453  0.5193125022524612  0.0419015424327398
  0.4248667550014389  0.5131939539965416  0.1972404939988621
  0.4679769500492981  0.4613814359481410  0.3341121562177420
  0.6043094791499612  0.9322495387021448  0.0935212820306148
  0.5972947470014347  0.0131939539965416  0.2287808460000207
  0.0800107689996281  0.5131939539965416  0.1341597890026520
  0.1125962020216207  0.5023295016918254  0.2972445417749654
  0.2524387620005299  0.0131939539965416  0.1657001409976715
  0.2922331697963259  0.9776775902054737  0.3126297135457605
  0.7490482460920873  0.4758983820696727  0.1044189368383925
  0.7697227400023365  0.5131939539965416  0.2603211980011793
  0.9097181649660513  0.2857582519019317  0.1248888865711137
  0.9430487959679184  0.2782803760227424  0.2772931750306640
  0.3934740844858453  0.7712814057552322  0.0419015424327398
  0.4248667550014389  0.7773999540007139  0.1972404939988621
  0.4679769500552169  0.8292124720699974  0.3341121562116101
  0.6043094791499612  0.3583443692951107  0.0935212820306148
  0.5972947470014347  0.2773999540007139  0.2287808460000207
  0.0800107689996281  0.7773999540007139  0.1341597890026520
  0.1125962020157019  0.7882644063054300  0.2972445417749654
  0.2524387620005299  0.2773999540007139  0.1657001409976715
  0.2922331697963259  0.3129163178022267  0.3126297135457605
  0.7490482460980061  0.8146955259484585  0.1044189368445316
  0.7697227400023365  0.7773999540007139  0.2603211980011793
  0.9885725985628966  0.1452969540038467  0.3650788385650685
  0.9914612059989238  0.1452969540038467  0.1889491030017183
  0.4741772270021372  0.6452969540038467  0.0943280459982105
  0.5087451840007304  0.6452969540038467  0.2835701589990478
  0.6466052199971131  0.1452969540038467  0.1258683989994012
  0.6805515984070638  0.1452969540038467  0.2883836510790090
  0.1179703352637631  0.6452969540038467  0.0429520832605590
  0.1638891979989197  0.6452969540038467  0.2204894550028698
  0.2989362280653509  0.1452969539934088  0.0776948949314260
  0.3363171909998286  0.1452969540038467  0.2520298069978892
  0.8190332129980220  0.6452969540038467  0.1574087510005597
  0.8470829585592767  0.6452969539934088  0.3243928831762304
  0.8100659772391765  0.3097982877011916  0.0520577208490849
  0.8290610549983839  0.3135119539986277  0.2207824650019887
  0.3117770760015972  0.8135119539986277  0.1261614079984881
  0.3516540256364920  0.7929621342164310  0.3031148205904373
  0.4936296741027846  0.3267285024967634  0.1663103273540329
  0.5274160107558998  0.2813323395427858  0.3338546868885928
  0.0014890469983797  0.8135119539986277  0.2523228169970153
  0.9679131270628361  0.8224873153581882  0.0873554843041333
  0.1408060273741611  0.3202858491649465  0.1102358067069886
  0.1739170399992886  0.3135119539986277  0.2838631689981668
  0.6585638966335949  0.7922232450062197  0.0196276253460255
  0.6566330619974821  0.8135119539986277  0.1892421130008373
  0.6952557055944979  0.7900057192060075  0.3568004182152222
  0.3117770760015972  0.4770819539986277  0.1261614079984881
  0.3516540256364920  0.4976317737912694  0.3031148205904373
  0.8100659772450953  0.9807956203169397  0.0520577208429529
  0.8290610549983839  0.9770819539986277  0.2207824650019887
  0.0014890469983797  0.4770819539986277  0.2523228169970153
  0.9679131270569172  0.4681065926495123  0.0873554843041333
  0.4936296741027846  0.9638654055004920  0.1663103273601649
  0.5274160107618187  0.0092615684753525  0.3338546868885928
  0.6585638966276690  0.4983706630014808  0.0196276253398935
  0.6566330619974821  0.4770819539986277  0.1892421130008373
  0.6952557055944979  0.5005881888016930  0.3568004182152222
  0.1408060273741611  0.9703080588427540  0.1102358067131206
  0.1739170399992886  0.9770819539986277  0.2838631689981668
 
  0.00000000E+00  0.00000000E+00  0.00000000E+00
  0.00000000E+00  0.00000000E+00  0.00000000E+00
  0.00000000E+00  0.00000000E+00  0.00000000E+00
  0.00000000E+00  0.00000000E+00  0.00000000E+00
  0.00000000E+00  0.00000000E+00  0.00000000E+00
  0.00000000E+00  0.00000000E+00  0.00000000E+00
  0.00000000E+00  0.00000000E+00  0.00000000E+00
  0.00000000E+00  0.00000000E+00  0.00000000E+00
  0.00000000E+00  0.00000000E+00  0.00000000E+00
  0.00000000E+00  0.00000000E+00  0.00000000E+00
  0.00000000E+00  0.00000000E+00  0.00000000E+00
  0.00000000E+00  0.00000000E+00  0.00000000E+00
  0.00000000E+00  0.00000000E+00  0.00000000E+00
  0.00000000E+00  0.00000000E+00  0.00000000E+00
  0.00000000E+00  0.00000000E+00  0.00000000E+00
  0.00000000E+00  0.00000000E+00  0.00000000E+00
  0.00000000E+00  0.00000000E+00  0.00000000E+00
  0.00000000E+00  0.00000000E+00  0.00000000E+00
  0.00000000E+00  0.00000000E+00  0.00000000E+00
  0.00000000E+00  0.00000000E+00  0.00000000E+00
  0.00000000E+00  0.00000000E+00  0.00000000E+00
  0.00000000E+00  0.00000000E+00  0.00000000E+00
  0.00000000E+00  0.00000000E+00  0.00000000E+00
  0.00000000E+00  0.00000000E+00  0.00000000E+00
  0.00000000E+00  0.00000000E+00  0.00000000E+00
  0.00000000E+00  0.00000000E+00  0.00000000E+00
  0.00000000E+00  0.00000000E+00  0.00000000E+00
  0.00000000E+00  0.00000000E+00  0.00000000E+00
  0.00000000E+00  0.00000000E+00  0.00000000E+00
  0.00000000E+00  0.00000000E+00  0.00000000E+00
  0.00000000E+00  0.00000000E+00  0.00000000E+00
  0.00000000E+00  0.00000000E+00  0.00000000E+00
  0.00000000E+00  0.00000000E+00  0.00000000E+00
  0.00000000E+00  0.00000000E+00  0.00000000E+00
  0.00000000E+00  0.00000000E+00  0.00000000E+00
  0.00000000E+00  0.00000000E+00  0.00000000E+00
  0.00000000E+00  0.00000000E+00  0.00000000E+00
  0.00000000E+00  0.00000000E+00  0.00000000E+00
  0.00000000E+00  0.00000000E+00  0.00000000E+00
  0.00000000E+00  0.00000000E+00  0.00000000E+00
  0.00000000E+00  0.00000000E+00  0.00000000E+00
  0.00000000E+00  0.00000000E+00  0.00000000E+00
  0.00000000E+00  0.00000000E+00  0.00000000E+00
  0.00000000E+00  0.00000000E+00  0.00000000E+00
  0.00000000E+00  0.00000000E+00  0.00000000E+00
  0.00000000E+00  0.00000000E+00  0.00000000E+00
  0.00000000E+00  0.00000000E+00  0.00000000E+00
  0.00000000E+00  0.00000000E+00  0.00000000E+00
  0.00000000E+00  0.00000000E+00  0.00000000E+00
  0.00000000E+00  0.00000000E+00  0.00000000E+00
  0.00000000E+00  0.00000000E+00  0.00000000E+00
  0.00000000E+00  0.00000000E+00  0.00000000E+00
  0.00000000E+00  0.00000000E+00  0.00000000E+00
  0.00000000E+00  0.00000000E+00  0.00000000E+00
  0.00000000E+00  0.00000000E+00  0.00000000E+00
  0.00000000E+00  0.00000000E+00  0.00000000E+00
  0.00000000E+00  0.00000000E+00  0.00000000E+00
  0.00000000E+00  0.00000000E+00  0.00000000E+00
  0.00000000E+00  0.00000000E+00  0.00000000E+00
  0.00000000E+00  0.00000000E+00  0.00000000E+00
  0.00000000E+00  0.00000000E+00  0.00000000E+00
  0.00000000E+00  0.00000000E+00  0.00000000E+00
  0.00000000E+00  0.00000000E+00  0.00000000E+00
  0.00000000E+00  0.00000000E+00  0.00000000E+00
  0.00000000E+00  0.00000000E+00  0.00000000E+00
  0.00000000E+00  0.00000000E+00  0.00000000E+00
  0.00000000E+00  0.00000000E+00  0.00000000E+00
  0.00000000E+00  0.00000000E+00  0.00000000E+00
  0.00000000E+00  0.00000000E+00  0.00000000E+00
  0.00000000E+00  0.00000000E+00  0.00000000E+00
  0.00000000E+00  0.00000000E+00  0.00000000E+00
  0.00000000E+00  0.00000000E+00  0.00000000E+00
  0.00000000E+00  0.00000000E+00  0.00000000E+00
  0.00000000E+00  0.00000000E+00  0.00000000E+00
  0.00000000E+00  0.00000000E+00  0.00000000E+00
  0.00000000E+00  0.00000000E+00  0.00000000E+00
