Type_036 Type_136 
1.0
1.0079732984900000e+01 0.0000000000000000e+00 0.0000000000000000e+00 
3.5732980426999998e+00 9.4251025535000004e+00 0.0000000000000000e+00 
0.0000000000000000e+00 0.0000000000000000e+00 2.0683503555200002e+01 
Type_0 Type_1 
36 36 
Cartesian
   6.9146170255    7.4215813234    2.8422821697
   7.8205595665    6.0762060191    5.0695108158
   8.7982718702    4.6599098735    7.6950132030
   9.5261750916    2.1794183460    8.7141693869
   2.6177410304    3.8787025952    3.3191758841
   3.5954533240    2.4624064496    5.9446782713
   4.5731656313    1.0461103134    8.5701806585
  12.0020849186    5.5966806587    1.9816090822
   3.8391114958    7.0813150304    9.2046107210
   7.2939555545    2.1376228840    2.8409464935
   8.4723677728    0.2649030257    4.1943433396
  13.0233781126    8.2737094431    6.8198457475
   5.5075890600    5.2605837367    2.1660623605
   6.6181553317    3.9602313063    4.3758373189
   7.5958676289    2.5439351701    7.0013397268
   1.4153367856    1.7627278824    2.6255023872
   2.3930490928    0.3464317462    5.2510047951
   6.9440594292    8.3552381541    7.8765071823
   6.9230182186    6.7384580244    9.5645776410
   2.0021934142    3.4116932722    0.8093678939
   2.6046426954    4.7836480830    8.4499590672
   8.4384495728    9.3563722253    1.8623906327
  10.8432615742    7.5740308758    3.5006698634
  11.8209738678    6.1577347302    6.1261722506
   4.5513224366    9.3663673574    8.1672081788
   9.0229638062    4.3344252481    3.6821638427
  10.0006761099    2.9181291025    6.3076662299
   3.8201452701    2.1369218242    1.9318289110
   4.7978575637    0.7206256786    4.5573312982
   9.3488679036    8.7294320960    7.1828337061
  10.3103751078    7.6464353168    9.1916604062
   3.1683370602    7.9482248082    2.8069963665
   4.1460493675    6.5319286720    5.4324987744
   5.1237616611    5.1156325265    8.0580011616
   6.0156266960    3.8215642548    9.8081148691
   7.7400041531    0.0261269159    1.5545281573
  13.3618157851    9.0129001726    9.6779028437
   7.3344306266    4.1801643203    2.4263037598
   8.3331695653    2.4102897418    4.8690782140
   9.4238697411    0.9852620490    7.0632038804
   2.2632772746    1.4160105859    0.7748330469
   3.1303510191    0.2127863179    3.1187432823
   7.6813613691    8.2215927353    5.7442456695
   8.6590736627    6.8052965897    8.3697480566
   2.4785428194    6.0240893019    3.9939107378
   3.4562551266    4.6077931658    6.6194131250
   4.2624873888    3.2898992920    8.8775110345
  11.5805635106    7.4403854475    1.3684083506
   7.6771665758    7.7117299323    1.0054243714
   8.9341686585    6.5002796699    3.3804104444
   9.8642659773    5.1046924800    5.7523759824
  10.8419782744    3.6883963439    8.3778783696
   3.6936277685    4.3391246049    1.5512853847
   4.6614474311    2.9071890561    4.0020410507
   5.6391597283    1.4908929199    6.6275434379
   6.3903965790    0.1896451232    8.9610468274
   4.0096392349    8.7184920496    4.8772085062
   4.9873515285    7.3021959040    7.5027109141
   5.2284123861    5.7146216765   10.0812614391
   9.5383618698    0.7096856322    2.2517061190
   4.9451371971    7.2651364638    1.9273290264
   5.8243608569    6.0445041118    4.0101713430
   6.8020731541    4.6282079756    6.6356737508
   7.8136932464    3.3042572471    8.9581152919
   1.5992546180    2.4307045517    4.8853388192
   2.5769669116    1.0144084061    7.5108412064
   7.3406853660    8.8347232185    9.7898872710
  10.7012752956    3.8470006878    2.2598364320
   5.8047941260    1.7202078919    1.2446398755
   6.4761690567    0.2332011277    3.1350038875
  11.0271793930    8.2420075357    5.7605062747
  12.0048917003    6.8257113995    8.3860086825
