Structure 20 made from -111-5.xsd file
1.0
       10.0628203371        5.0445621212        0.0000000000
        0.0000000000       11.2564630382        0.0000000000
        0.0000000000        0.0000000000       21.7442318436
   Ni    S
   48   48
Direct
     0.260920696     0.478780360     0.253327988
     0.354880562     0.384820493     0.388354968
     0.448840428     0.290860627     0.523381948
     0.166960829     0.072740241     0.118301008
     0.056118679     0.051479395     0.487707010
     0.274239065     0.333358994     0.082626070
     0.368198931     0.239399128     0.217653050
     0.462158798     0.145439262     0.352680030
     0.000301942     0.371502124     0.217653050
     0.094261809     0.277542258     0.352680030
     0.188221675     0.183582391     0.487707010
     0.406342061     0.465461991     0.082626070
     0.760920696     0.478780360     0.253327988
     0.854880562     0.384820493     0.388354968
     0.948840428     0.290860627     0.523381948
     0.666960829     0.072740241     0.118301008
     0.556118679     0.051479395     0.487707010
     0.774239065     0.333358994     0.082626070
     0.868198931     0.239399128     0.217653050
     0.962158798     0.145439262     0.352680030
     0.500301942     0.371502124     0.217653050
     0.594261809     0.277542258     0.352680030
     0.688221675     0.183582391     0.487707010
     0.906342061     0.465461991     0.082626070
     0.260920696     0.978780360     0.253327988
     0.354880562     0.884820493     0.388354968
     0.448840428     0.790860627     0.523381948
     0.166960829     0.572740241     0.118301008
     0.056118679     0.551479395     0.487707010
     0.274239065     0.833358994     0.082626070
     0.368198931     0.739399128     0.217653050
     0.462158798     0.645439262     0.352680030
     0.000301942     0.871502124     0.217653050
     0.094261809     0.777542258     0.352680030
     0.188221675     0.683582391     0.487707010
     0.406342061     0.965461991     0.082626070
     0.760920696     0.978780360     0.253327988
     0.854880562     0.884820493     0.388354968
     0.948840428     0.790860627     0.523381948
     0.666960829     0.572740241     0.118301008
     0.556118679     0.551479395     0.487707010
     0.774239065     0.833358994     0.082626070
     0.868198931     0.739399128     0.217653050
     0.962158798     0.645439262     0.352680030
     0.500301942     0.871502124     0.217653050
     0.594261809     0.777542258     0.352680030
     0.688221675     0.683582391     0.487707010
     0.906342061     0.965461991     0.082626070
     0.072877635     0.166823435     0.270053960
     0.166837502     0.072863568     0.405080940
     0.384957888     0.354743168     0.000000000
     0.478917754     0.260783301     0.135026980
     0.260797368     0.478903687     0.540107920
     0.030233425     0.377682640     0.450508067
     0.436273543     0.471642507     0.315481087
     0.248353811     0.159562255     0.045427127
     0.342313677     0.065602388     0.180454107
     0.080138816     0.491347245     0.045427127
     0.174098682     0.397387378     0.180454107
     0.268058548     0.303427512     0.315481087
     0.362018415     0.209467645     0.450508067
     0.572877635     0.166823435     0.270053960
     0.666837502     0.072863568     0.405080940
     0.978917754     0.260783301     0.135026980
     0.530233425     0.377682640     0.450508067
     0.936273543     0.471642507     0.315481087
     0.748353811     0.159562255     0.045427127
     0.842313677     0.065602388     0.180454107
     0.674098682     0.397387378     0.180454107
     0.768058548     0.303427512     0.315481087
     0.862018415     0.209467645     0.450508067
     0.072877635     0.666823435     0.270053960
     0.166837502     0.572863568     0.405080940
     0.384957888     0.854743168     0.000000000
     0.478917754     0.760783301     0.135026980
     0.030233425     0.877682640     0.450508067
     0.436273543     0.971642507     0.315481087
     0.248353811     0.659562255     0.045427127
     0.342313677     0.565602388     0.180454107
     0.080138816     0.991347245     0.045427127
     0.174098682     0.897387378     0.180454107
     0.268058548     0.803427512     0.315481087
     0.362018415     0.709467645     0.450508067
     0.572877635     0.666823435     0.270053960
     0.666837502     0.572863568     0.405080940
     0.884957888     0.854743168     0.000000000
     0.978917754     0.760783301     0.135026980
     0.760797368     0.978903687     0.540107920
     0.530233425     0.877682640     0.450508067
     0.936273543     0.971642507     0.315481087
     0.748353811     0.659562255     0.045427127
     0.842313677     0.565602388     0.180454107
     0.580138816     0.991347245     0.045427127
     0.674098682     0.897387378     0.180454107
     0.768058548     0.803427512     0.315481087
     0.862018415     0.709467645     0.450508067
