Type_048 Type_148                       
   1.00000000000000     
    11.2564630381999997    0.0000000000000000    0.0000000000000000
     5.0445621212000002   10.0628203370999998    0.0000000000000000
     0.0000000000000000    0.0000000000000000   21.7442318436000015
   Ty   Ty
    48    48
Direct
  0.2609206960044546  0.4787803599988010  0.2533279879979418
  0.3548805620016608  0.3848204930006744  0.3883549679997316
  0.3750663021912999  0.3646344453127170  0.4973861197852898
  0.1669608289981213  0.0727402410039417  0.1183010080007563
  0.0490992471352101  0.0542833439335197  0.4723731727558445
  0.2785963258129840  0.3057698020062958  0.1039305864817308
  0.3681989310042511  0.2393991279977712  0.2176530500015303
  0.4621587979997130  0.1454392620033360  0.3526800299987229
  0.0003019419993961  0.3715021239937357  0.2176530500015303
  0.0942618090037328  0.2775422579993005  0.3526800299987229
  0.1854156509488263  0.1905999365633875  0.4723751630124013
  0.5119921205268554  0.4371923768906214  0.1180982934357289
  0.7609206960044546  0.4787803599988010  0.2533279879979418
  0.8548805620016608  0.3848204930006744  0.3883549679997316
  0.8750535689916603  0.3646477962616075  0.4973816557692388
  0.6845664708778756  0.0624402926367935  0.1315345314919369
  0.5491024423666033  0.0542841761952246  0.4723787915057187
  0.7742390649993283  0.3333589940021469  0.0826260699997476
  0.8681989310042511  0.2393991279977712  0.2176530500015303
  0.9621587979997130  0.1454392620033360  0.3526800299987229
  0.5003019420082779  0.3715021239937357  0.2176530500015303
  0.5942618090037328  0.2775422579993005  0.3526800299987229
  0.6854191152560674  0.1905977964675358  0.4723788016555375
  0.9063420610019080  0.4654619910018027  0.0826260699997476
  0.2609206959977968  0.9787803599938343  0.2533279879979418
  0.3548805620038848  0.8848204929957006  0.3883549679997316
  0.3750559500738362  0.8646448203911277  0.4973827955657697
  0.1516873759608401  0.5717348773473248  0.1428080435784125
  0.0491047845841877  0.5542828295797051  0.4723846803410225
  0.2811128381577888  0.8309450546356203  0.1025228655182957
  0.3681989310064822  0.7393991279928045  0.2176530500015303
  0.4621587980019370  0.6454392619983693  0.3526800299987229
  0.0003019419971650  0.8715021239987024  0.2176530500015303
  0.0942618089970821  0.7775422579943267  0.3526800299987229
  0.1854167766793040  0.6905977111485129  0.4723838870041845
  0.4105942256966841  0.9569726702857153  0.1028919338421446
  0.7609206960066786  0.9787803599938343  0.2533279879979418
  0.8548805620038848  0.8848204929957006  0.3883549679997316
  0.8750583367164140  0.8646433260188218  0.4973845007030349
  0.6669608290003453  0.5727402409989679  0.1183010080007563
  0.5491026598099182  0.5542850720623562  0.4723776463606484
  0.7965293405274210  0.7571327031260182  0.1129631017902781
  0.8681989310064822  0.7393991279928045  0.2176530500015303
  0.9621587980019370  0.6454392619983693  0.3526800299987229
  0.5003019419971650  0.8715021239987024  0.2176530500015303
  0.5942618090059639  0.7775422579943267  0.3526800299987229
  0.6854165370867520  0.6905988984001610  0.4723770343638591
  0.9063420610041319  0.9654619909968361  0.0826260699997476
  0.0728776349993865  0.1668234349977240  0.2700539599989753
  0.1668375020004547  0.0728635679995975  0.4050809400007651
  0.4789177539986298  0.2607833010020997  0.1350269800017898
  0.2111499769477163  0.5285522200561132  0.5263902179266395
  0.0302334250019030  0.3776826399938784  0.4505080670018344
  0.4362735430005458  0.4716425070019454  0.3154810870000517
  0.2778549248194651  0.1371539866225788  0.0649120377372867
  0.3423136770025295  0.0656023879971457  0.1804541069982619
  0.0971544002138884  0.4693713479794823  0.0746321066006104
  0.1740986819989843  0.3973873779955071  0.1804541069982619
  0.2680585479994591  0.3034275120010648  0.3154810870000517
  0.3620184150005272  0.2094676450029382  0.4505080670018344
  0.5728776349993865  0.1668234349977240  0.2700539599989753
  0.6668375020004547  0.0728635679995975  0.4050809400007651
  0.8817247742195846  0.3587873494957492  0.0147558504530210
  0.9789177539986298  0.2607833010020997  0.1350269800017898
  0.7111395961765297  0.5285625240162872  0.5263895388637962
  0.5302334250019030  0.3776826399938784  0.4505080670018344
  0.9362735430005458  0.4716425070019454  0.3154810870000517
  0.7597429590308238  0.1575550864557016  0.0679490897184678
  0.8423136770025295  0.0656023879971457  0.1804541069982619
  0.6022460569124064  0.4876124887681428  0.0503547401019020
  0.6740986820078660  0.3973873779955071  0.1804541069982619
  0.7680585479994591  0.3034275120010648  0.3154810870000517
  0.8620184150005272  0.2094676450029382  0.4505080670018344
  0.0728776350016105  0.6668234349927573  0.2700539599989753
  0.1668375020026858  0.5728635679946237  0.4050809400007651
  0.4789177540008538  0.7607833009971330  0.1350269800017898
  0.2111372567505683  0.0285607438145732  0.5263862681481157
  0.0302334249996719  0.8776826399988451  0.4505080670018344
  0.4362735430027698  0.9716425069969787  0.3154810870000517
  0.3423136770003055  0.5656023880021124  0.1804541069982619
  0.0936098524305109  0.9623649005931512  0.0675479114122979
  0.1740986819967603  0.8973873780004737  0.1804541069982619
  0.2680585480016831  0.8034275119960981  0.3154810870000517
  0.3620184150027583  0.7094676449979715  0.4505080670018344
  0.5728776350016105  0.6668234349927573  0.2700539599989753
  0.6668375020026858  0.5728635679946237  0.4050809400007651
  0.7522725445663383  0.9249408821684639  0.0602362269967003
  0.9789177540008538  0.7607833009971330  0.1350269800017898
  0.7111417488436302  0.0285589699679392  0.5263892929364999
  0.5302334249996719  0.8776826399988451  0.4505080670018344
  0.9362735430027698  0.9716425069969787  0.3154810870000517
  0.7551392548012004  0.6405357143996824  0.0530835425736029
  0.8423136770003055  0.5656023880021124  0.1804541069982619
  0.6740986819967603  0.8973873780004737  0.1804541069982619
  0.7680585480016831  0.8034275119960981  0.3154810870000517
  0.8620184150027583  0.7094676449979715  0.4505080670018344
 
  0.00000000E+00  0.00000000E+00  0.00000000E+00
  0.00000000E+00  0.00000000E+00  0.00000000E+00
  0.00000000E+00  0.00000000E+00  0.00000000E+00
  0.00000000E+00  0.00000000E+00  0.00000000E+00
  0.00000000E+00  0.00000000E+00  0.00000000E+00
  0.00000000E+00  0.00000000E+00  0.00000000E+00
  0.00000000E+00  0.00000000E+00  0.00000000E+00
  0.00000000E+00  0.00000000E+00  0.00000000E+00
  0.00000000E+00  0.00000000E+00  0.00000000E+00
  0.00000000E+00  0.00000000E+00  0.00000000E+00
  0.00000000E+00  0.00000000E+00  0.00000000E+00
  0.00000000E+00  0.00000000E+00  0.00000000E+00
  0.00000000E+00  0.00000000E+00  0.00000000E+00
  0.00000000E+00  0.00000000E+00  0.00000000E+00
  0.00000000E+00  0.00000000E+00  0.00000000E+00
  0.00000000E+00  0.00000000E+00  0.00000000E+00
  0.00000000E+00  0.00000000E+00  0.00000000E+00
  0.00000000E+00  0.00000000E+00  0.00000000E+00
  0.00000000E+00  0.00000000E+00  0.00000000E+00
  0.00000000E+00  0.00000000E+00  0.00000000E+00
  0.00000000E+00  0.00000000E+00  0.00000000E+00
  0.00000000E+00  0.00000000E+00  0.00000000E+00
  0.00000000E+00  0.00000000E+00  0.00000000E+00
  0.00000000E+00  0.00000000E+00  0.00000000E+00
  0.00000000E+00  0.00000000E+00  0.00000000E+00
  0.00000000E+00  0.00000000E+00  0.00000000E+00
  0.00000000E+00  0.00000000E+00  0.00000000E+00
  0.00000000E+00  0.00000000E+00  0.00000000E+00
  0.00000000E+00  0.00000000E+00  0.00000000E+00
  0.00000000E+00  0.00000000E+00  0.00000000E+00
  0.00000000E+00  0.00000000E+00  0.00000000E+00
  0.00000000E+00  0.00000000E+00  0.00000000E+00
  0.00000000E+00  0.00000000E+00  0.00000000E+00
  0.00000000E+00  0.00000000E+00  0.00000000E+00
  0.00000000E+00  0.00000000E+00  0.00000000E+00
  0.00000000E+00  0.00000000E+00  0.00000000E+00
  0.00000000E+00  0.00000000E+00  0.00000000E+00
  0.00000000E+00  0.00000000E+00  0.00000000E+00
  0.00000000E+00  0.00000000E+00  0.00000000E+00
  0.00000000E+00  0.00000000E+00  0.00000000E+00
  0.00000000E+00  0.00000000E+00  0.00000000E+00
  0.00000000E+00  0.00000000E+00  0.00000000E+00
  0.00000000E+00  0.00000000E+00  0.00000000E+00
  0.00000000E+00  0.00000000E+00  0.00000000E+00
  0.00000000E+00  0.00000000E+00  0.00000000E+00
  0.00000000E+00  0.00000000E+00  0.00000000E+00
  0.00000000E+00  0.00000000E+00  0.00000000E+00
  0.00000000E+00  0.00000000E+00  0.00000000E+00
  0.00000000E+00  0.00000000E+00  0.00000000E+00
  0.00000000E+00  0.00000000E+00  0.00000000E+00
  0.00000000E+00  0.00000000E+00  0.00000000E+00
  0.00000000E+00  0.00000000E+00  0.00000000E+00
  0.00000000E+00  0.00000000E+00  0.00000000E+00
  0.00000000E+00  0.00000000E+00  0.00000000E+00
  0.00000000E+00  0.00000000E+00  0.00000000E+00
  0.00000000E+00  0.00000000E+00  0.00000000E+00
  0.00000000E+00  0.00000000E+00  0.00000000E+00
  0.00000000E+00  0.00000000E+00  0.00000000E+00
  0.00000000E+00  0.00000000E+00  0.00000000E+00
  0.00000000E+00  0.00000000E+00  0.00000000E+00
  0.00000000E+00  0.00000000E+00  0.00000000E+00
  0.00000000E+00  0.00000000E+00  0.00000000E+00
  0.00000000E+00  0.00000000E+00  0.00000000E+00
  0.00000000E+00  0.00000000E+00  0.00000000E+00
  0.00000000E+00  0.00000000E+00  0.00000000E+00
  0.00000000E+00  0.00000000E+00  0.00000000E+00
  0.00000000E+00  0.00000000E+00  0.00000000E+00
  0.00000000E+00  0.00000000E+00  0.00000000E+00
  0.00000000E+00  0.00000000E+00  0.00000000E+00
  0.00000000E+00  0.00000000E+00  0.00000000E+00
  0.00000000E+00  0.00000000E+00  0.00000000E+00
  0.00000000E+00  0.00000000E+00  0.00000000E+00
  0.00000000E+00  0.00000000E+00  0.00000000E+00
  0.00000000E+00  0.00000000E+00  0.00000000E+00
  0.00000000E+00  0.00000000E+00  0.00000000E+00
  0.00000000E+00  0.00000000E+00  0.00000000E+00
  0.00000000E+00  0.00000000E+00  0.00000000E+00
  0.00000000E+00  0.00000000E+00  0.00000000E+00
  0.00000000E+00  0.00000000E+00  0.00000000E+00
  0.00000000E+00  0.00000000E+00  0.00000000E+00
  0.00000000E+00  0.00000000E+00  0.00000000E+00
  0.00000000E+00  0.00000000E+00  0.00000000E+00
  0.00000000E+00  0.00000000E+00  0.00000000E+00
  0.00000000E+00  0.00000000E+00  0.00000000E+00
  0.00000000E+00  0.00000000E+00  0.00000000E+00
  0.00000000E+00  0.00000000E+00  0.00000000E+00
  0.00000000E+00  0.00000000E+00  0.00000000E+00
  0.00000000E+00  0.00000000E+00  0.00000000E+00
  0.00000000E+00  0.00000000E+00  0.00000000E+00
  0.00000000E+00  0.00000000E+00  0.00000000E+00
  0.00000000E+00  0.00000000E+00  0.00000000E+00
  0.00000000E+00  0.00000000E+00  0.00000000E+00
  0.00000000E+00  0.00000000E+00  0.00000000E+00
  0.00000000E+00  0.00000000E+00  0.00000000E+00
  0.00000000E+00  0.00000000E+00  0.00000000E+00
  0.00000000E+00  0.00000000E+00  0.00000000E+00
