Type_037 Type_137 
1.0
1.6884694054200001e+01 0.0000000000000000e+00 0.0000000000000000e+00 
0.0000000000000000e+00 9.5784099999999999e+00 0.0000000000000000e+00 
0.0000000000000000e+00 0.0000000000000000e+00 1.6197619147600001e+01 
Type_0 Type_1 
37 37 
Cartesian
   1.2809598238    8.5804272485    4.5366967421
   1.6807120367    8.8448295298    1.9497492390
   9.8312243663    4.0556245298    3.4920210149
  10.5193191055    3.6151090728    1.1804251283
   3.9712445880    4.2163879258    4.1414425794
   4.5962336964    4.0478023762    1.6783359795
  12.2049955684    8.9249644230    5.5128510087
  12.7426182745    8.8448295298    2.9779304176
   6.9198304750    8.8448295298    4.0061116123
   7.4821914702    8.7445469270    1.3258249022
  15.7444807967    3.2786641374    4.6633771045
  15.6540121827    4.0556245298    2.4638398364
   8.5074350420    5.2929339865    5.3614997643
   7.6778101065    5.3209612260    3.0845435679
   7.4019778354    5.3191480341    0.7374772559
  15.8283224530    0.5317562260    4.6268153438
  16.4119918310    0.5317562260    1.5422717759
   1.8550223070    5.3209612260    4.1127247464
   2.1595751222    5.3181348812    1.4700452984
   9.3136936779    0.5334443455    4.5432133111
  10.5892040147    0.5317562260    2.5704529706
   4.5375647781    0.4203090276    3.0685965800
   5.3436006643    0.5403671209    0.7956946826
  12.2275627459    5.3163088482    3.9891678735
  13.5005979229    5.3209612260    2.0563623732
   1.2826502587    2.0760224309    4.5319371876
   1.6807120367    1.7970929222    1.9497492390
   9.8312243663    6.5862979222    3.4920210149
  10.5181982299    7.0247594173    1.1789612655
   4.0551122492    6.7893869613    4.1492818603
   4.5880266825    6.5780128775    1.6742039184
  12.2587964777    1.7983672646    5.4883433549
  12.7426182745    1.7970929222    2.9779304176
   7.0099820015    1.7641728357    3.7005783339
   7.4817062332    1.8920788707    1.2607677398
  15.7472632049    7.3613147085    4.6627731503
  15.6540121827    6.5862979222    2.4638398364
   0.4572304113    1.8771010659    0.3650176418
   7.9280412619    7.0050045274    4.3862566449
   8.5054091306    6.9321934642    1.5660279006
  16.6246008326    1.9496918707    5.9036447265
  16.6559214603    2.1429884642    3.1082996927
   2.3351840069    6.9472452742    5.3022967400
   2.6826213142    6.9321934642    2.5942090953
  10.8331336608    2.1429884642    4.1364808712
  11.5534743053    1.8961111692    1.3013339967
   5.5940152224    2.1429884642    2.0801184980
  13.7445275690    6.9321934642    3.6223902738
  14.3860339380    6.7281150516    0.8981560770
   2.5133042869    0.5317562260    3.6271661742
   3.2728091966    0.5230424448    1.1745461929
  10.5100950384    5.3209475550    5.0701922402
  11.2474859946    5.3209612260    2.0848943984
   5.4246981782    5.3209612260    3.1130755931
   5.4336011849    5.3128502258    0.2777993139
  13.5752105248    0.5317562260    4.6553473689
  14.2186487679    0.5308044372    2.0554231357
   0.0936747768    5.3208398810    1.4271092858
   7.4745038039    0.6742012755    5.3873686932
   8.3360920864    0.5317562260    2.5989849957
  16.4866044329    5.3209612260    4.1412567716
   0.4540860489    8.7621834856    0.3656994145
   7.9085935239    3.6086134188    4.3449879685
   8.5054091306    3.7097289879    1.5660279006
  16.6182842619    8.6925888449    5.9065882334
  16.6559214603    8.4989339879    3.1082996927
   2.3475558094    3.6978097987    5.2994930377
   2.6826213142    3.7097289879    2.5942090953
  10.8331336608    8.4989339879    4.1364808712
  11.5522763797    8.7435021675    1.3033869896
   4.9477536427    8.6224629315    4.6434073918
   5.5940152224    8.4989339879    2.0801184980
  13.7445275690    3.7097289879    3.6223902738
  14.3864454956    3.9144177860    0.8975979303
