Type_036 Type_136 
1.0
1.6884694054200001e+01 0.0000000000000000e+00 0.0000000000000000e+00 
0.0000000000000000e+00 9.5784099999999999e+00 0.0000000000000000e+00 
0.0000000000000000e+00 0.0000000000000000e+00 1.6169087119699999e+01 
Type_0 Type_1 
36 36 
Cartesian
  13.1708432418    1.3917137972    1.9497492410
  13.5799540366    1.3774283054    4.6396491887
   3.6206986860    6.4017642664    1.5582989742
   5.0203308953    6.1809187972    3.4920210102
   6.5699641506    1.5754202828    1.9289328782
   7.9317248035    1.3917137972    4.0061116054
  16.0822371500    6.1809187972    2.4638398361
  15.9231697696    6.1910602076    4.8507217786
   2.1089370040    1.3917137972    2.9779304313
   1.2112953708    1.2444865589    5.1059046902
   9.6205954369    6.1089216607    2.5866987123
  10.8431187116    6.1809187972    4.5202022005
  15.4113481168    0.0404000068    1.9317590492
  15.8939109318    0.0854879875    4.3927640328
   7.2498992164    4.0830928613    0.9205940187
   7.1737451720    4.9155821009    3.0845435547
   7.7385916602    4.5789001262    5.4599783267
   8.9497883063    1.3753486251    1.4255738572
  10.0851390633    0.1263771009    3.5986341498
   1.3509573556    4.9155821009    2.0563623806
   1.7916373549    3.5658672899    3.9282939879
   4.2623512638    0.1263771009    2.5704529595
   5.0026521678    9.2582643731    4.8079835281
  12.9567936086    4.0452776646    1.9079668759
  12.9965329715    4.9155821009    4.1127247450
  15.3514423728    2.7237314366    1.8834564779
  15.9706281404    2.6856135616    4.3895451756
   6.0305451541    6.1952506332    0.9385478196
   7.1737451720    7.4462554934    3.0845435547
   7.9527798960    8.0134204110    5.2713170452
  10.3849105119    3.3848976475    1.3857018868
  10.0851390633    2.6570504934    3.5986341498
   1.3509573556    7.4462554934    2.0563623806
   1.9258849806    7.6156783960    4.6259946517
   4.2623512638    2.6570504934    2.5704529595
  12.9965329715    7.4462554934    4.1127247450
  16.2455649759    1.3748786057    5.9504055082
  16.7405191299    1.3917137972    2.9493983955
   8.0063374054    6.1809187972    1.4071266100
   8.5900067834    6.1809187972    4.4916701809
  10.9177313135    1.3917137972    1.9212172052
  11.4973717539    1.3800904086    4.5593255141
   1.8874168613    6.1868309932    0.5197501926
   2.7672189670    6.1809187972    3.4634889906
   4.7497486587    1.4009011651    1.0087301033
   5.6612332120    1.3445877201    3.7754996344
  13.9193540781    6.0108185153    2.6120677929
  14.0041143097    6.2036883826    5.4258904996
  13.7818422889    2.7962088542    0.5453074932
  13.9984422659    3.0029460353    3.4682648862
   5.2642605414    7.7921510353    1.9259931169
   5.9968637456    7.4956266489    4.8687987011
   8.1756544496    3.0029460353    2.4400837121
   8.7879850325    2.8775028076    5.2248525289
   0.0251421030    7.7921510353    3.9823554813
  16.3411096809    7.8641165278    1.2788580555
   2.3657342160    3.1335908065    1.8801893282
   3.0783805001    2.2590901330    4.7085284294
  10.9760421600    7.7382267150    3.1223916167
  11.7023869126    7.6404166138    5.6564124772
   5.2642605414    4.5696865590    1.9259931169
   5.8652844340    4.6843579752    4.7083433280
  13.9037431523    0.0781852018    0.6133289396
  13.9984422659    9.3588915590    3.4682648862
   0.0251421030    4.5696865590    3.9823554813
  16.3321928548    4.4812120564    1.2786950319
   8.1756544496    9.3588915590    2.4400837121
   8.9671939726    0.1565992122    5.3303981126
  11.0870483577    4.5696865590    2.9541742911
  11.6635774405    4.6989913895    5.6457353080
   2.3863945940    9.2466141560    1.7607636167
   2.9365360112    9.3588915590    4.4964460765
