Structure 1 made from 021-4.xsd file    
   1.00000000000000     
    11.2351097479999993    3.6905792347999999    0.0000000000000000
     0.0000000000000000   11.8257374458999998    0.0000000000000000
     0.0000000000000000    0.0000000000000000   18.3232149811000014
   Ni   S 
    36    36
Direct
  0.9240882269999986  0.1938175470000019  0.0721857939999992
  0.0606737339999981  0.0572320389999987  0.2087947159999999
  0.1972592409999976  0.9206465170000016  0.3454036380000005
  0.1161207979999972  0.1338879719999966  0.0000000000000000
  0.2527063049999967  0.9973024640000006  0.1366089220000006
  0.3892918120000033  0.8607169420000034  0.2732178440000013
  0.0561912229999990  0.3259205430000023  0.0721857939999992
  0.1927767299999985  0.1893350349999992  0.2087947159999999
  0.3293622369999980  0.0527495130000020  0.3454036380000005
  0.4240882269999986  0.1938175470000019  0.0721857939999992
  0.5606737339999981  0.0572320389999987  0.2087947159999999
  0.6972592409999976  0.9206465170000016  0.3454036380000005
  0.6161207979999972  0.1338879719999966  0.0000000000000000
  0.7527063049999967  0.9973024640000006  0.1366089220000006
  0.8892918120000033  0.8607169420000034  0.2732178440000013
  0.5561912229999990  0.3259205430000023  0.0721857939999992
  0.6927767299999985  0.1893350349999992  0.2087947159999999
  0.8293622369999980  0.0527495130000020  0.3454036380000005
  0.9240882269999986  0.6938175470000019  0.0721857939999992
  0.0606737339999981  0.5572320389999987  0.2087947159999999
  0.1972592409999976  0.4206465170000016  0.3454036380000005
  0.1161207979999972  0.6338879719999966  0.0000000000000000
  0.2527063049999967  0.4973024640000006  0.1366089220000006
  0.3892918120000033  0.3607169420000034  0.2732178440000013
  0.0561912229999990  0.8259205430000023  0.0721857939999992
  0.1927767299999985  0.6893350349999992  0.2087947159999999
  0.3293622369999980  0.5527495130000020  0.3454036380000005
  0.4240882269999986  0.6938175470000019  0.0721857939999992
  0.5606737339999981  0.5572320389999987  0.2087947159999999
  0.6972592409999976  0.4206465170000016  0.3454036380000005
  0.6161207979999972  0.6338879719999966  0.0000000000000000
  0.7527063049999967  0.4973024640000006  0.1366089220000006
  0.8892918120000033  0.3607169420000034  0.2732178440000013
  0.5561912229999990  0.8259205430000023  0.0721857939999992
  0.6927767299999985  0.6893350349999992  0.2087947159999999
  0.8293622369999980  0.5527495130000020  0.3454036380000005
  0.2413252469999989  0.1768985180000016  0.0891077229999979
  0.3779107539999984  0.0403130099999984  0.2257166449999986
  0.5144962609999979  0.9037274880000012  0.3623255669999992
  0.9967981810000026  0.2532105880000017  0.1810264020000005
  0.1333836880000021  0.1166250810000022  0.3176353240000012
  0.2699691959999981  0.9800395589999980  0.4542442460000018
  0.0731102519999993  0.0086835230000020  0.0891077229999979
  0.2096957589999988  0.8720980149999988  0.2257166449999986
  0.3462812659999983  0.7355124930000017  0.3623255669999992
  0.7413252469999989  0.1768985180000016  0.0891077229999979
  0.8779107539999984  0.0403130099999984  0.2257166449999986
  0.0144962609999979  0.9037274880000012  0.3623255669999992
  0.4967981810000026  0.2532105880000017  0.1810264020000005
  0.6333836880000021  0.1166250810000022  0.3176353240000012
  0.7699691959999981  0.9800395589999980  0.4542442460000018
  0.5731102519999993  0.0086835230000020  0.0891077229999979
  0.7096957589999988  0.8720980149999988  0.2257166449999986
  0.8462812659999983  0.7355124930000017  0.3623255669999992
  0.2413252469999989  0.6768985180000016  0.0891077229999979
  0.3779107539999984  0.5403130099999984  0.2257166449999986
  0.5144962609999979  0.4037274880000012  0.3623255669999992
  0.9967981810000026  0.7532105880000017  0.1810264020000005
  0.1333836880000021  0.6166250810000022  0.3176353240000012
  0.2699691959999981  0.4800395589999980  0.4542442460000018
  0.0731102519999993  0.5086835230000020  0.0891077229999979
  0.2096957589999988  0.3720980149999988  0.2257166449999986
  0.3462812659999983  0.2355124930000017  0.3623255669999992
  0.7413252469999989  0.6768985180000016  0.0891077229999979
  0.8779107539999984  0.5403130099999984  0.2257166449999986
  0.0144962609999979  0.4037274880000012  0.3623255669999992
  0.4967981810000026  0.7532105880000017  0.1810264020000005
  0.6333836880000021  0.6166250810000022  0.3176353240000012
  0.7699691959999981  0.4800395589999980  0.4542442460000018
  0.5731102519999993  0.5086835230000020  0.0891077229999979
  0.7096957589999988  0.3720980149999988  0.2257166449999986
  0.8462812659999983  0.2355124930000017  0.3623255669999992
 
  0.00000000E+00  0.00000000E+00  0.00000000E+00
  0.00000000E+00  0.00000000E+00  0.00000000E+00
  0.00000000E+00  0.00000000E+00  0.00000000E+00
  0.00000000E+00  0.00000000E+00  0.00000000E+00
  0.00000000E+00  0.00000000E+00  0.00000000E+00
  0.00000000E+00  0.00000000E+00  0.00000000E+00
  0.00000000E+00  0.00000000E+00  0.00000000E+00
  0.00000000E+00  0.00000000E+00  0.00000000E+00
  0.00000000E+00  0.00000000E+00  0.00000000E+00
  0.00000000E+00  0.00000000E+00  0.00000000E+00
  0.00000000E+00  0.00000000E+00  0.00000000E+00
  0.00000000E+00  0.00000000E+00  0.00000000E+00
  0.00000000E+00  0.00000000E+00  0.00000000E+00
  0.00000000E+00  0.00000000E+00  0.00000000E+00
  0.00000000E+00  0.00000000E+00  0.00000000E+00
  0.00000000E+00  0.00000000E+00  0.00000000E+00
  0.00000000E+00  0.00000000E+00  0.00000000E+00
  0.00000000E+00  0.00000000E+00  0.00000000E+00
  0.00000000E+00  0.00000000E+00  0.00000000E+00
  0.00000000E+00  0.00000000E+00  0.00000000E+00
  0.00000000E+00  0.00000000E+00  0.00000000E+00
  0.00000000E+00  0.00000000E+00  0.00000000E+00
  0.00000000E+00  0.00000000E+00  0.00000000E+00
  0.00000000E+00  0.00000000E+00  0.00000000E+00
  0.00000000E+00  0.00000000E+00  0.00000000E+00
  0.00000000E+00  0.00000000E+00  0.00000000E+00
  0.00000000E+00  0.00000000E+00  0.00000000E+00
  0.00000000E+00  0.00000000E+00  0.00000000E+00
  0.00000000E+00  0.00000000E+00  0.00000000E+00
  0.00000000E+00  0.00000000E+00  0.00000000E+00
  0.00000000E+00  0.00000000E+00  0.00000000E+00
  0.00000000E+00  0.00000000E+00  0.00000000E+00
  0.00000000E+00  0.00000000E+00  0.00000000E+00
  0.00000000E+00  0.00000000E+00  0.00000000E+00
  0.00000000E+00  0.00000000E+00  0.00000000E+00
  0.00000000E+00  0.00000000E+00  0.00000000E+00
  0.00000000E+00  0.00000000E+00  0.00000000E+00
  0.00000000E+00  0.00000000E+00  0.00000000E+00
  0.00000000E+00  0.00000000E+00  0.00000000E+00
  0.00000000E+00  0.00000000E+00  0.00000000E+00
  0.00000000E+00  0.00000000E+00  0.00000000E+00
  0.00000000E+00  0.00000000E+00  0.00000000E+00
  0.00000000E+00  0.00000000E+00  0.00000000E+00
  0.00000000E+00  0.00000000E+00  0.00000000E+00
  0.00000000E+00  0.00000000E+00  0.00000000E+00
  0.00000000E+00  0.00000000E+00  0.00000000E+00
  0.00000000E+00  0.00000000E+00  0.00000000E+00
  0.00000000E+00  0.00000000E+00  0.00000000E+00
  0.00000000E+00  0.00000000E+00  0.00000000E+00
  0.00000000E+00  0.00000000E+00  0.00000000E+00
  0.00000000E+00  0.00000000E+00  0.00000000E+00
  0.00000000E+00  0.00000000E+00  0.00000000E+00
  0.00000000E+00  0.00000000E+00  0.00000000E+00
  0.00000000E+00  0.00000000E+00  0.00000000E+00
  0.00000000E+00  0.00000000E+00  0.00000000E+00
  0.00000000E+00  0.00000000E+00  0.00000000E+00
  0.00000000E+00  0.00000000E+00  0.00000000E+00
  0.00000000E+00  0.00000000E+00  0.00000000E+00
  0.00000000E+00  0.00000000E+00  0.00000000E+00
  0.00000000E+00  0.00000000E+00  0.00000000E+00
  0.00000000E+00  0.00000000E+00  0.00000000E+00
  0.00000000E+00  0.00000000E+00  0.00000000E+00
  0.00000000E+00  0.00000000E+00  0.00000000E+00
  0.00000000E+00  0.00000000E+00  0.00000000E+00
  0.00000000E+00  0.00000000E+00  0.00000000E+00
  0.00000000E+00  0.00000000E+00  0.00000000E+00
  0.00000000E+00  0.00000000E+00  0.00000000E+00
  0.00000000E+00  0.00000000E+00  0.00000000E+00
  0.00000000E+00  0.00000000E+00  0.00000000E+00
  0.00000000E+00  0.00000000E+00  0.00000000E+00
  0.00000000E+00  0.00000000E+00  0.00000000E+00
  0.00000000E+00  0.00000000E+00  0.00000000E+00
