Structure 1 made from -112-4.xsd file   
   1.00000000000000     
    16.8846940542000006    0.0000000000000000    0.0000000000000000
     0.0000000000000000    9.5784099999999999    0.0000000000000000
     0.0000000000000000    0.0000000000000000   16.1453309934000018
   Ni   S 
    36    36
Direct
  0.7800463060000027  0.1452969549999992  0.1273657610000001
  0.8146142630000028  0.1452969549999992  0.3184144029999985
  0.2627623269999972  0.6452969549999992  0.0318414400000009
  0.2973302839999974  0.6452969549999992  0.2228900819999993
  0.4351903199999967  0.1452969549999992  0.0636828809999983
  0.4697582769999968  0.1452969549999992  0.2547315229999967
  0.9524742990000021  0.6452969549999992  0.1592072019999975
  0.9870422560000023  0.6452969549999992  0.3502558440000030
  0.0903343339999978  0.1452969549999992  0.0000000000000000
  0.1249022920000016  0.1452969549999992  0.1910486419999984
  0.6076183130000032  0.6452969549999992  0.0955243209999992
  0.6421862700000034  0.6452969549999992  0.2865729629999976
  0.9075827750000016  0.0131939549999984  0.1021276629999974
  0.9421507320000018  0.0131939549999984  0.2931763039999993
  0.3902987969999998  0.5131939549999984  0.0066033419999982
  0.4248667540000000  0.5131939549999984  0.1976519839999966
  0.5627267890000027  0.0131939549999984  0.0384447819999991
  0.5972947469999994  0.0131939549999984  0.2294934239999975
  0.0800107680000011  0.5131939549999984  0.1339691029999983
  0.1145787250000012  0.5131939549999984  0.3250177449999967
  0.2524387610000005  0.0131939549999984  0.1658105429999992
  0.2870067180000007  0.0131939549999984  0.3568591849999976
  0.7351547820000022  0.5131939549999984  0.0702862220000000
  0.7697227390000023  0.5131939549999984  0.2613348639999984
  0.9075827750000016  0.2773999549999999  0.1021276629999974
  0.9421507320000018  0.2773999549999999  0.2931763039999993
  0.3902987969999998  0.7773999549999999  0.0066033419999982
  0.4248667540000000  0.7773999549999999  0.1976519839999966
  0.5627267890000027  0.2773999549999999  0.0384447819999991
  0.5972947469999994  0.2773999549999999  0.2294934239999975
  0.0800107680000011  0.7773999549999999  0.1339691029999983
  0.1145787250000012  0.7773999549999999  0.3250177449999967
  0.2524387610000005  0.2773999549999999  0.1658105429999992
  0.2870067180000007  0.2773999549999999  0.3568591849999976
  0.7351547820000022  0.7773999549999999  0.0702862220000000
  0.7697227390000023  0.7773999549999999  0.2613348639999984
  0.0260291620000004  0.1452969549999992  0.3803300840000006
  0.9914612050000002  0.1452969549999992  0.1892814420000022
  0.4741772260000019  0.6452969549999992  0.0937571210000030
  0.5087451830000020  0.6452969549999992  0.2848057630000014
  0.6466052190000013  0.1452969549999992  0.1255985609999968
  0.6811731760000015  0.1452969549999992  0.3166472030000023
  0.1293212400000030  0.6452969549999992  0.0300742399999976
  0.1638891979999997  0.6452969549999992  0.2211228820000031
  0.3017492330000024  0.1452969549999992  0.0619156810000021
  0.3363171900000026  0.1452969549999992  0.2529643230000005
  0.8190332120000008  0.6452969549999992  0.1574400020000013
  0.8536011690000009  0.6452969549999992  0.3484886439999997
  0.7944930959999965  0.3135119550000027  0.0303700469999981
  0.8290610540000003  0.3135119550000027  0.2214186889999965
  0.3117770750000020  0.8135119550000027  0.1258943679999973
  0.3463450320000021  0.8135119550000027  0.3169430100000028
  0.4842050680000014  0.3135119550000027  0.1577358090000018
  0.5187730250000016  0.3135119550000027  0.3487844510000002
  0.0014890460000032  0.8135119550000027  0.2532601300000010
  0.9669210890000031  0.8135119550000027  0.0622114880000026
  0.1393490820000025  0.3135119550000027  0.0940529280000035
  0.1739170390000027  0.3135119550000027  0.2851015700000019
  0.6566330610000009  0.8135119550000027  0.1895772490000027
  0.6912010180000010  0.8135119550000027  0.3806258910000011
  0.3117770750000020  0.4770819550000027  0.1258943679999973
  0.3463450320000021  0.4770819550000027  0.3169430100000028
  0.7944930959999965  0.9770819550000027  0.0303700469999981
  0.8290610540000003  0.9770819550000027  0.2214186889999965
  0.0014890460000032  0.4770819550000027  0.2532601300000010
  0.9669210890000031  0.4770819550000027  0.0622114880000026
  0.4842050680000014  0.9770819550000027  0.1577358090000018
  0.5187730250000016  0.9770819550000027  0.3487844510000002
  0.6566330610000009  0.4770819550000027  0.1895772490000027
  0.6912010180000010  0.4770819550000027  0.3806258910000011
  0.1393490820000025  0.9770819550000027  0.0940529280000035
  0.1739170390000027  0.9770819550000027  0.2851015700000019
 
  0.00000000E+00  0.00000000E+00  0.00000000E+00
  0.00000000E+00  0.00000000E+00  0.00000000E+00
  0.00000000E+00  0.00000000E+00  0.00000000E+00
  0.00000000E+00  0.00000000E+00  0.00000000E+00
  0.00000000E+00  0.00000000E+00  0.00000000E+00
  0.00000000E+00  0.00000000E+00  0.00000000E+00
  0.00000000E+00  0.00000000E+00  0.00000000E+00
  0.00000000E+00  0.00000000E+00  0.00000000E+00
  0.00000000E+00  0.00000000E+00  0.00000000E+00
  0.00000000E+00  0.00000000E+00  0.00000000E+00
  0.00000000E+00  0.00000000E+00  0.00000000E+00
  0.00000000E+00  0.00000000E+00  0.00000000E+00
  0.00000000E+00  0.00000000E+00  0.00000000E+00
  0.00000000E+00  0.00000000E+00  0.00000000E+00
  0.00000000E+00  0.00000000E+00  0.00000000E+00
  0.00000000E+00  0.00000000E+00  0.00000000E+00
  0.00000000E+00  0.00000000E+00  0.00000000E+00
  0.00000000E+00  0.00000000E+00  0.00000000E+00
  0.00000000E+00  0.00000000E+00  0.00000000E+00
  0.00000000E+00  0.00000000E+00  0.00000000E+00
  0.00000000E+00  0.00000000E+00  0.00000000E+00
  0.00000000E+00  0.00000000E+00  0.00000000E+00
  0.00000000E+00  0.00000000E+00  0.00000000E+00
  0.00000000E+00  0.00000000E+00  0.00000000E+00
  0.00000000E+00  0.00000000E+00  0.00000000E+00
  0.00000000E+00  0.00000000E+00  0.00000000E+00
  0.00000000E+00  0.00000000E+00  0.00000000E+00
  0.00000000E+00  0.00000000E+00  0.00000000E+00
  0.00000000E+00  0.00000000E+00  0.00000000E+00
  0.00000000E+00  0.00000000E+00  0.00000000E+00
  0.00000000E+00  0.00000000E+00  0.00000000E+00
  0.00000000E+00  0.00000000E+00  0.00000000E+00
  0.00000000E+00  0.00000000E+00  0.00000000E+00
  0.00000000E+00  0.00000000E+00  0.00000000E+00
  0.00000000E+00  0.00000000E+00  0.00000000E+00
  0.00000000E+00  0.00000000E+00  0.00000000E+00
  0.00000000E+00  0.00000000E+00  0.00000000E+00
  0.00000000E+00  0.00000000E+00  0.00000000E+00
  0.00000000E+00  0.00000000E+00  0.00000000E+00
  0.00000000E+00  0.00000000E+00  0.00000000E+00
  0.00000000E+00  0.00000000E+00  0.00000000E+00
  0.00000000E+00  0.00000000E+00  0.00000000E+00
  0.00000000E+00  0.00000000E+00  0.00000000E+00
  0.00000000E+00  0.00000000E+00  0.00000000E+00
  0.00000000E+00  0.00000000E+00  0.00000000E+00
  0.00000000E+00  0.00000000E+00  0.00000000E+00
  0.00000000E+00  0.00000000E+00  0.00000000E+00
  0.00000000E+00  0.00000000E+00  0.00000000E+00
  0.00000000E+00  0.00000000E+00  0.00000000E+00
  0.00000000E+00  0.00000000E+00  0.00000000E+00
  0.00000000E+00  0.00000000E+00  0.00000000E+00
  0.00000000E+00  0.00000000E+00  0.00000000E+00
  0.00000000E+00  0.00000000E+00  0.00000000E+00
  0.00000000E+00  0.00000000E+00  0.00000000E+00
  0.00000000E+00  0.00000000E+00  0.00000000E+00
  0.00000000E+00  0.00000000E+00  0.00000000E+00
  0.00000000E+00  0.00000000E+00  0.00000000E+00
  0.00000000E+00  0.00000000E+00  0.00000000E+00
  0.00000000E+00  0.00000000E+00  0.00000000E+00
  0.00000000E+00  0.00000000E+00  0.00000000E+00
  0.00000000E+00  0.00000000E+00  0.00000000E+00
  0.00000000E+00  0.00000000E+00  0.00000000E+00
  0.00000000E+00  0.00000000E+00  0.00000000E+00
  0.00000000E+00  0.00000000E+00  0.00000000E+00
  0.00000000E+00  0.00000000E+00  0.00000000E+00
  0.00000000E+00  0.00000000E+00  0.00000000E+00
  0.00000000E+00  0.00000000E+00  0.00000000E+00
  0.00000000E+00  0.00000000E+00  0.00000000E+00
  0.00000000E+00  0.00000000E+00  0.00000000E+00
  0.00000000E+00  0.00000000E+00  0.00000000E+00
  0.00000000E+00  0.00000000E+00  0.00000000E+00
  0.00000000E+00  0.00000000E+00  0.00000000E+00
