Structure 1 made from -112-4.xsd file
1.0
       16.8846940542        0.0000000000        0.0000000000
        0.0000000000        9.5784100000        0.0000000000
        0.0000000000        0.0000000000       16.1453309934
   Ni    S
   36   36
Direct
     0.780046306     0.145296955     0.127365761
     0.814614263     0.145296955     0.318414403
     0.262762327     0.645296955     0.031841440
     0.297330284     0.645296955     0.222890082
     0.435190320     0.145296955     0.063682881
     0.469758277     0.145296955     0.254731523
     0.952474299     0.645296955     0.159207202
     0.987042256     0.645296955     0.350255844
     0.090334334     0.145296955     0.000000000
     0.124902292     0.145296955     0.191048642
     0.607618313     0.645296955     0.095524321
     0.642186270     0.645296955     0.286572963
     0.907582775     0.013193955     0.102127663
     0.942150732     0.013193955     0.293176304
     0.390298797     0.513193955     0.006603342
     0.424866754     0.513193955     0.197651984
     0.562726789     0.013193955     0.038444782
     0.597294747     0.013193955     0.229493424
     0.080010768     0.513193955     0.133969103
     0.114578725     0.513193955     0.325017745
     0.252438761     0.013193955     0.165810543
     0.287006718     0.013193955     0.356859185
     0.735154782     0.513193955     0.070286222
     0.769722739     0.513193955     0.261334864
     0.907582775     0.277399955     0.102127663
     0.942150732     0.277399955     0.293176304
     0.390298797     0.777399955     0.006603342
     0.424866754     0.777399955     0.197651984
     0.562726789     0.277399955     0.038444782
     0.597294747     0.277399955     0.229493424
     0.080010768     0.777399955     0.133969103
     0.114578725     0.777399955     0.325017745
     0.252438761     0.277399955     0.165810543
     0.287006718     0.277399955     0.356859185
     0.735154782     0.777399955     0.070286222
     0.769722739     0.777399955     0.261334864
     0.026029162     0.145296955     0.380330084
     0.991461205     0.145296955     0.189281442
     0.474177226     0.645296955     0.093757121
     0.508745183     0.645296955     0.284805763
     0.646605219     0.145296955     0.125598561
     0.681173176     0.145296955     0.316647203
     0.129321240     0.645296955     0.030074240
     0.163889198     0.645296955     0.221122882
     0.301749233     0.145296955     0.061915681
     0.336317190     0.145296955     0.252964323
     0.819033212     0.645296955     0.157440002
     0.853601169     0.645296955     0.348488644
     0.794493096     0.313511955     0.030370047
     0.829061054     0.313511955     0.221418689
     0.311777075     0.813511955     0.125894368
     0.346345032     0.813511955     0.316943010
     0.484205068     0.313511955     0.157735809
     0.518773025     0.313511955     0.348784451
     0.001489046     0.813511955     0.253260130
     0.966921089     0.813511955     0.062211488
     0.139349082     0.313511955     0.094052928
     0.173917039     0.313511955     0.285101570
     0.656633061     0.813511955     0.189577249
     0.691201018     0.813511955     0.380625891
     0.311777075     0.477081955     0.125894368
     0.346345032     0.477081955     0.316943010
     0.794493096     0.977081955     0.030370047
     0.829061054     0.977081955     0.221418689
     0.001489046     0.477081955     0.253260130
     0.966921089     0.477081955     0.062211488
     0.484205068     0.977081955     0.157735809
     0.518773025     0.977081955     0.348784451
     0.656633061     0.477081955     0.189577249
     0.691201018     0.477081955     0.380625891
     0.139349082     0.977081955     0.094052928
     0.173917039     0.977081955     0.285101570
