Type_037 Type_137                       
   1.00000000000000     
    16.8846940542000006    0.0000000000000000    0.0000000000000000
     0.0000000000000000    9.5784099999999999    0.0000000000000000
     0.0000000000000000    0.0000000000000000   16.6546456851000002
   Ty   Ty
    37    37
Direct
  0.7800463049979740  0.1452969570001699  0.1234707970004862
  0.7319971737376889  0.0956288526801430  0.2491391128309743
  0.2139684050775728  0.6222771081630469  0.0989250640302686
  0.2973302840006866  0.6452969570001699  0.2160738940018092
  0.3882480842505629  0.1326616879106268  0.1299244558733434
  0.4697582760006824  0.1452969570001699  0.2469415940009725
  0.9524742979988829  0.6452969570001699  0.1543384960029286
  0.9723543963306867  0.6289968816953930  0.3042006065450309
  0.0639918956323200  0.1557349968209749  0.0576002600318475
  0.1249022909997848  0.1452969570001699  0.1852061949993669
  0.1343160720899093  0.1451257722628299  0.3373869991438525
  0.5696623564705590  0.6378804269915364  0.1606479108284873
  0.6421862690015914  0.6452969570001699  0.2778092929974108
  0.8879848491344404  0.9878318621253399  0.0998111832656505
  0.0138884573121203  0.9901034304336491  0.1676358576152595
  0.3536811740106458  0.6575859779441444  0.0711717471816584
  0.4248667529996268  0.5131939570033026  0.1916076000016602
  0.4495259384171035  0.4968285732183091  0.3405954748034574
  0.5293270501976792  0.1449209185762541  0.0934541894333094
  0.5972947460005287  0.0131939570033026  0.2224753000008235
  0.0800107669978161  0.5131939570033026  0.1298722020027796
  0.0993408704662144  0.4975893337620718  0.2807373092591803
  0.2524387599987179  0.0131939570033026  0.1607399009992179
  0.2864102122298817  0.9990112458539571  0.3178649764753771
  0.7606931732591917  0.4311154015332406  0.1186829582672146
  0.7697227380005245  0.5131939570033026  0.2533429989972618
  0.9011289099914279  0.3685686011457037  0.1397932301365543
  0.4248667529996268  0.7773999569970371  0.1916076000016602
  0.4499839618183685  0.7945185902670673  0.3403669148285431
  0.6157561487833902  0.3532997371484399  0.0898396359604732
  0.5972947460005287  0.2773999569970371  0.2224753000008235
  0.0800107669978161  0.7773999569970371  0.1298722020027796
  0.1103604774903530  0.7798252507775274  0.2955900052983012
  0.2524387599987179  0.2773999569970371  0.1607399009992179
  0.2861634567786595  0.2912984580321805  0.3178670493624622
  0.7565412096657198  0.8860813103636218  0.1256069042628454
  0.7697227380005245  0.7773999569970371  0.2533429989972618
  0.0337923733985619  0.1207059474484780  0.2686719866699576
  0.9571949103797834  0.1693720823602263  0.1153921292014815
  0.4692781965646020  0.6480551404669441  0.0974725106912544
  0.5087451819989184  0.6452969570001699  0.2760961359996870
  0.6466052180012269  0.1452969570001699  0.1217576390000445
  0.6367129919849361  0.1463762917227385  0.3140825013515496
  0.1115876254347228  0.6459075281492446  0.0364355704992789
  0.1638891969980136  0.6452969570001699  0.2143607369980813
  0.0722412782301234  0.6286101036602076  0.3736932153031631
  0.2843429658357195  0.1448415058866743  0.0690800761453190
  0.3363171889980094  0.1452969570001699  0.2452284360005237
  0.8190332110021288  0.6452969570001699  0.1526253389992007
  0.8497624533937582  0.6447671647381981  0.3130367384797808
  0.8250952807779512  0.3027784851869981  0.0474945440903412
  0.8004794098083181  0.3005518161156218  0.2151062145383875
  0.2861791147467088  0.8072794309807136  0.1259147920616641
  0.3414085558669697  0.8108156850354078  0.2885980913721937
  0.4842050670006870  0.3135119569949509  0.1529121000021263
  0.5087416532941731  0.3176404756112987  0.3139149727560593
  0.0014890459974737  0.8135119569949509  0.2455151969974452
  0.9692400367733782  0.8293484966294002  0.0824545062359761
  0.1368436145471819  0.3140699726259371  0.1032449428893187
  0.1739170379974695  0.3135119569949509  0.2763828959998875
  0.6566330600015888  0.8135119569949509  0.1837797989985646
  0.6936799701494465  0.7968578184061883  0.3461209953963262
  0.3117770739997852  0.4770819569949509  0.1220444000029630
  0.3405560069694999  0.4806226368050659  0.2897806750171625
  0.7892493216473255  0.0027754543812577  0.0293075122718847
  0.8290610530024907  0.9770819569949509  0.2146474980010069
  0.9892146318248081  0.4640582509414415  0.2223446022819289
  0.9709902428242003  0.4948998705630672  0.0666833126923621
  0.4842050670006870  0.9770819569949509  0.1529121000021263
  0.5095963922816651  0.9730163054724130  0.3133505864474131
  0.6566330600015888  0.4770819569949509  0.1837797989985646
  0.6973103548341371  0.5052516647439376  0.3496888130925768
  0.1258192187303280  0.9821066635798630  0.1006363244280521
  0.1739170379974695  0.9770819569949509  0.2763828959998875
 
  0.00000000E+00  0.00000000E+00  0.00000000E+00
  0.00000000E+00  0.00000000E+00  0.00000000E+00
  0.00000000E+00  0.00000000E+00  0.00000000E+00
  0.00000000E+00  0.00000000E+00  0.00000000E+00
  0.00000000E+00  0.00000000E+00  0.00000000E+00
  0.00000000E+00  0.00000000E+00  0.00000000E+00
  0.00000000E+00  0.00000000E+00  0.00000000E+00
  0.00000000E+00  0.00000000E+00  0.00000000E+00
  0.00000000E+00  0.00000000E+00  0.00000000E+00
  0.00000000E+00  0.00000000E+00  0.00000000E+00
  0.00000000E+00  0.00000000E+00  0.00000000E+00
  0.00000000E+00  0.00000000E+00  0.00000000E+00
  0.00000000E+00  0.00000000E+00  0.00000000E+00
  0.00000000E+00  0.00000000E+00  0.00000000E+00
  0.00000000E+00  0.00000000E+00  0.00000000E+00
  0.00000000E+00  0.00000000E+00  0.00000000E+00
  0.00000000E+00  0.00000000E+00  0.00000000E+00
  0.00000000E+00  0.00000000E+00  0.00000000E+00
  0.00000000E+00  0.00000000E+00  0.00000000E+00
  0.00000000E+00  0.00000000E+00  0.00000000E+00
  0.00000000E+00  0.00000000E+00  0.00000000E+00
  0.00000000E+00  0.00000000E+00  0.00000000E+00
  0.00000000E+00  0.00000000E+00  0.00000000E+00
  0.00000000E+00  0.00000000E+00  0.00000000E+00
  0.00000000E+00  0.00000000E+00  0.00000000E+00
  0.00000000E+00  0.00000000E+00  0.00000000E+00
  0.00000000E+00  0.00000000E+00  0.00000000E+00
  0.00000000E+00  0.00000000E+00  0.00000000E+00
  0.00000000E+00  0.00000000E+00  0.00000000E+00
  0.00000000E+00  0.00000000E+00  0.00000000E+00
  0.00000000E+00  0.00000000E+00  0.00000000E+00
  0.00000000E+00  0.00000000E+00  0.00000000E+00
  0.00000000E+00  0.00000000E+00  0.00000000E+00
  0.00000000E+00  0.00000000E+00  0.00000000E+00
  0.00000000E+00  0.00000000E+00  0.00000000E+00
  0.00000000E+00  0.00000000E+00  0.00000000E+00
  0.00000000E+00  0.00000000E+00  0.00000000E+00
  0.00000000E+00  0.00000000E+00  0.00000000E+00
  0.00000000E+00  0.00000000E+00  0.00000000E+00
  0.00000000E+00  0.00000000E+00  0.00000000E+00
  0.00000000E+00  0.00000000E+00  0.00000000E+00
  0.00000000E+00  0.00000000E+00  0.00000000E+00
  0.00000000E+00  0.00000000E+00  0.00000000E+00
  0.00000000E+00  0.00000000E+00  0.00000000E+00
  0.00000000E+00  0.00000000E+00  0.00000000E+00
  0.00000000E+00  0.00000000E+00  0.00000000E+00
  0.00000000E+00  0.00000000E+00  0.00000000E+00
  0.00000000E+00  0.00000000E+00  0.00000000E+00
  0.00000000E+00  0.00000000E+00  0.00000000E+00
  0.00000000E+00  0.00000000E+00  0.00000000E+00
  0.00000000E+00  0.00000000E+00  0.00000000E+00
  0.00000000E+00  0.00000000E+00  0.00000000E+00
  0.00000000E+00  0.00000000E+00  0.00000000E+00
  0.00000000E+00  0.00000000E+00  0.00000000E+00
  0.00000000E+00  0.00000000E+00  0.00000000E+00
  0.00000000E+00  0.00000000E+00  0.00000000E+00
  0.00000000E+00  0.00000000E+00  0.00000000E+00
  0.00000000E+00  0.00000000E+00  0.00000000E+00
  0.00000000E+00  0.00000000E+00  0.00000000E+00
  0.00000000E+00  0.00000000E+00  0.00000000E+00
  0.00000000E+00  0.00000000E+00  0.00000000E+00
  0.00000000E+00  0.00000000E+00  0.00000000E+00
  0.00000000E+00  0.00000000E+00  0.00000000E+00
  0.00000000E+00  0.00000000E+00  0.00000000E+00
  0.00000000E+00  0.00000000E+00  0.00000000E+00
  0.00000000E+00  0.00000000E+00  0.00000000E+00
  0.00000000E+00  0.00000000E+00  0.00000000E+00
  0.00000000E+00  0.00000000E+00  0.00000000E+00
  0.00000000E+00  0.00000000E+00  0.00000000E+00
  0.00000000E+00  0.00000000E+00  0.00000000E+00
  0.00000000E+00  0.00000000E+00  0.00000000E+00
  0.00000000E+00  0.00000000E+00  0.00000000E+00
  0.00000000E+00  0.00000000E+00  0.00000000E+00
  0.00000000E+00  0.00000000E+00  0.00000000E+00
