Type_052 Type_152 
1.0
1.1256463038200000e+01 0.0000000000000000e+00 0.0000000000000000e+00 
5.0445621212000002e+00 1.0062820337100000e+01 0.0000000000000000e+00 
0.0000000000000000e+00 0.0000000000000000e+00 2.2883649387500000e+01 
Type_0 Type_1 
52 52 
Cartesian
   5.3522814389    4.8178807436    6.6478400577
   5.9359508116    3.8723794831    9.5838980192
   2.2463310649    0.7319719765    3.7117820963
   0.7231882285    0.4605246005   11.2750487775
   5.0495618946    5.2796598734    0.9925866107
   4.7686120527    3.3545316644    2.9360579615
   5.3522814305    2.4090304139    5.8721159229
   5.9359508195    1.4635291635    8.8081738844
   1.8774643416    3.7383591286    5.8721159229
   2.4611337307    2.7928578782    8.8081738844
   3.0118327843    2.1444125836   11.2213269957
   6.9220263192    4.6838603892    2.9360579615
  10.9805129580    4.8178807436    6.6478400577
  11.5641823307    3.8723794831    9.5838980192
   7.2482871850    2.2703917213    2.1096392356
   7.8745625840    0.7319719765    3.7117820963
   6.2420909591    0.6560750549   11.1876128940
  10.7067685052    5.2167723974    1.0403744347
  10.3968435718    3.3545316644    2.9360579615
  10.9805129496    2.4090304139    5.8721159229
  11.5641823386    1.4635291635    8.8081738844
   7.5056958608    3.7383591286    5.8721159229
   8.0893652498    2.7928578782    8.8081738844
   8.7404600280    2.1213176721   11.2137461118
  12.5502578383    4.6838603892    2.9360579615
   8.0368667105    0.2399732132    1.1474500820
   7.8745624994    9.8492909121    6.6478400577
   8.4582318722    8.9037896516    9.5838980192
   3.6543230259    7.0276879624    2.0643598369
   4.7686121255    5.7633821450    3.7117820963
   3.2362943062    5.6761799793   11.2800067993
   2.4416599594    0.4003207752    1.3308862467
   7.2908931133    8.3859418329    2.9360579615
   7.8745624911    7.4404405824    5.8721159229
   8.4582318801    6.4949393320    8.8081738844
   4.3997454022    8.7697692972    5.8721159229
   4.9834147912    7.8242680467    8.8081738844
   5.7947528751    7.1362869966   11.1035667435
   9.4443073798    9.7152705577    2.9360579615
   7.4785826526    5.5905677803    0.8592939316
  13.5027940186    9.8492909121    6.6478400577
  14.0864633913    8.9037896516    9.5838980192
   9.3055151669    7.0535088327    2.0357912483
  10.3968436446    5.7633821450    3.7117820963
   9.0530821491    5.3664035848   10.8761107642
  12.9191246324    8.3859418329    2.9360579615
  13.5027940102    7.4404405824    5.8721159229
  14.0864633992    6.4949393320    8.8081738844
  10.0279769213    8.7697692972    5.8721159229
  10.6116463104    7.8242680467    8.8081738844
  15.0725388989    9.7152705577    2.9360579615
  13.1084490245    5.5730050248    0.8523130477
   1.6618955858    1.6787142544    7.0115334673
   2.2455649698    0.7332129939    9.9475914287
   6.1227881856    3.5697167654    1.1394175444
   6.7064575583    2.6242155049    4.0754755058
   4.5771278648    6.4601364120   12.5509105717
   2.2083532606    3.9459212856   10.5767337581
   7.2901269369    4.7460538113    7.9993114563
   3.6910990447    1.6063217341    2.4280119355
   4.1841765742    0.6601450441    5.0632534949
   3.3807113207    4.9443390495    2.1271955334
   3.9643806934    3.9988377890    5.0632534949
   4.5480500712    3.0533365386    7.9993114563
   5.0384233989    2.2321161932   10.5899698305
   7.2901271049    1.6787142544    7.0115334673
   7.8737964889    0.7332129939    9.9475914287
  11.9687884365    3.6614780347    1.2732599908
  12.3346890774    2.6242155049    4.0754755058
  10.6865171341    4.3509016372   11.4625703513
   7.7109203495    3.8108378556   10.6469075420
  12.9183584560    4.7460538113    7.9993114563
   9.2287387206    1.6056463046    2.1271955334
   9.8124080933    0.6601450441    5.0632534949
   9.0089428398    4.9443390495    2.1271955334
   9.5926122126    3.9988377890    5.0632534949
  10.1762815903    3.0533365386    7.9993114563
  10.7484947744    1.9851138067   10.6118698871
   4.1841766464    6.7101244229    7.0115334673
   4.7678460304    5.7646231624    9.9475914287
   8.5687847737    8.7780736375    1.2452476064
   9.2287386189    7.6556256734    4.0754755058
   1.8893765482    1.3192017178   12.6560289945
   4.6803855882    8.8347971027   10.6341157320
   9.8124079975    9.7774639798    7.9993114563
   6.1227882621    6.6370564732    2.1271955334
   6.7064576348    5.6915552127    5.0632534949
   5.8654729501    9.8900113444    2.4439121173
   6.4866617540    9.0302479576    5.0632534949
   7.0703311318    8.0847467071    7.9993114563
   7.8876453597    7.1520493609   10.7032492092
   9.8124081655    6.7101244229    7.0115334673
  10.4354254749    5.8165660827    9.3922220023
  14.3054106161    8.7360513505    1.2296580321
  14.8569701380    7.6556256734    4.0754755058
   7.4736156152    1.3884208973   12.5875331105
  10.3154340417    8.9908418644   10.5184104494
  15.4406395166    9.7774639798    7.9993114563
  11.7510197812    6.6370564732    2.1271955334
  12.3346891539    5.6915552127    5.0632534949
  11.4857683133   10.0131754176    2.3960873496
  12.1148932731    9.0302479576    5.0632534949
  12.6985626509    8.0847467071    7.9993114563
  13.3947236339    7.2529903860   10.5956931025
