Structure 1 made from -111-1.xsd file   
   1.00000000000000     
    10.0628203370999998    5.0445621212000002    0.0000000000000000
     0.0000000000000000   11.2564630381999997    0.0000000000000000
     0.0000000000000000    0.0000000000000000   20.7564538638000009
   Ni   S 
    48    48
Direct
  0.2609206939999993  0.4787803609999983  0.2177946460000015
  0.3548805610000016  0.3848204949999996  0.3592474189999990
  0.4488404270000004  0.2908606279999972  0.5007001930000001
  0.1669608280000006  0.0727402420000018  0.0763418729999970
  0.0561186779999971  0.0514793970000014  0.4633275209999965
  0.2742390630000031  0.3333589960000012  0.0389692019999970
  0.3681989299999984  0.2393991289999988  0.1804219750000016
  0.4621587959999971  0.1454392630000001  0.3218747479999990
  0.0003019409999965  0.3715021260000029  0.1804219750000016
  0.0942618070000023  0.2775422590000005  0.3218747479999990
  0.1882216739999976  0.1835823930000018  0.4633275209999965
  0.4063420589999964  0.4654619920000016  0.0389692019999970
  0.7609206939999993  0.4787803609999983  0.2177946460000015
  0.8548805610000016  0.3848204949999996  0.3592474189999990
  0.9488404270000004  0.2908606279999972  0.5007001930000001
  0.6669608280000006  0.0727402420000018  0.0763418729999970
  0.5561186779999971  0.0514793970000014  0.4633275209999965
  0.7742390630000031  0.3333589960000012  0.0389692019999970
  0.8681989299999984  0.2393991289999988  0.1804219750000016
  0.9621587959999971  0.1454392630000001  0.3218747479999990
  0.5003019410000036  0.3715021260000029  0.1804219750000016
  0.5942618070000023  0.2775422590000005  0.3218747479999990
  0.6882216739999976  0.1835823930000018  0.4633275209999965
  0.9063420589999964  0.4654619920000016  0.0389692019999970
  0.2609206939999993  0.9787803609999983  0.2177946460000015
  0.3548805610000016  0.8848204949999996  0.3592474189999990
  0.4488404270000004  0.7908606279999972  0.5007001930000001
  0.1669608280000006  0.5727402420000018  0.0763418729999970
  0.0561186779999971  0.5514793970000014  0.4633275209999965
  0.2742390630000031  0.8333589960000012  0.0389692019999970
  0.3681989299999984  0.7393991289999988  0.1804219750000016
  0.4621587959999971  0.6454392630000001  0.3218747479999990
  0.0003019409999965  0.8715021260000029  0.1804219750000016
  0.0942618070000023  0.7775422590000005  0.3218747479999990
  0.1882216739999976  0.6835823930000018  0.4633275209999965
  0.4063420589999964  0.9654619920000016  0.0389692019999970
  0.7609206939999993  0.9787803609999983  0.2177946460000015
  0.8548805610000016  0.8848204949999996  0.3592474189999990
  0.9488404270000004  0.7908606279999972  0.5007001930000001
  0.6669608280000006  0.5727402420000018  0.0763418729999970
  0.5561186779999971  0.5514793970000014  0.4633275209999965
  0.7742390630000031  0.8333589960000012  0.0389692019999970
  0.8681989299999984  0.7393991289999988  0.1804219750000016
  0.9621587959999971  0.6454392630000001  0.3218747479999990
  0.5003019410000036  0.8715021260000029  0.1804219750000016
  0.5942618070000023  0.7775422590000005  0.3218747479999990
  0.6882216739999976  0.6835823930000018  0.4633275209999965
  0.9063420589999964  0.9654619920000016  0.0389692019999970
  0.0728776340000010  0.1668234360000014  0.2353165899999965
  0.1668375010000034  0.0728635700000027  0.3767693630000011
  0.4789177529999975  0.2607833029999966  0.0938638169999990
  0.2607973670000021  0.4789036880000026  0.5182221359999986
  0.0302334229999985  0.3776826420000035  0.4243583200000032
  0.4362735420000021  0.4716425080000022  0.2829055460000021
  0.2483538090000010  0.1595622560000010  0.0000000000000000
  0.3423136760000034  0.0656023900000022  0.1414527729999975
  0.0801388140000014  0.4913472459999966  0.0000000000000000
  0.1740986809999967  0.3973873799999978  0.1414527729999975
  0.2680585470000025  0.3034275130000026  0.2829055460000021
  0.3620184139999978  0.2094676469999968  0.4243583200000032
  0.5728776340000010  0.1668234360000014  0.2353165899999965
  0.6668375010000034  0.0728635700000027  0.3767693630000011
  0.9789177529999975  0.2607833029999966  0.0938638169999990
  0.7607973670000021  0.4789036880000026  0.5182221359999986
  0.5302334229999985  0.3776826420000035  0.4243583200000032
  0.9362735420000021  0.4716425080000022  0.2829055460000021
  0.7483538090000010  0.1595622560000010  0.0000000000000000
  0.8423136760000034  0.0656023900000022  0.1414527729999975
  0.5801388140000014  0.4913472459999966  0.0000000000000000
  0.6740986809999967  0.3973873799999978  0.1414527729999975
  0.7680585470000025  0.3034275130000026  0.2829055460000021
  0.8620184139999978  0.2094676469999968  0.4243583200000032
  0.0728776340000010  0.6668234360000014  0.2353165899999965
  0.1668375010000034  0.5728635700000027  0.3767693630000011
  0.4789177529999975  0.7607833029999966  0.0938638169999990
  0.2607973670000021  0.9789036880000026  0.5182221359999986
  0.0302334229999985  0.8776826420000035  0.4243583200000032
  0.4362735420000021  0.9716425080000022  0.2829055460000021
  0.2483538090000010  0.6595622560000010  0.0000000000000000
  0.3423136760000034  0.5656023900000022  0.1414527729999975
  0.0801388140000014  0.9913472459999966  0.0000000000000000
  0.1740986809999967  0.8973873799999978  0.1414527729999975
  0.2680585470000025  0.8034275130000026  0.2829055460000021
  0.3620184139999978  0.7094676469999968  0.4243583200000032
  0.5728776340000010  0.6668234360000014  0.2353165899999965
  0.6668375010000034  0.5728635700000027  0.3767693630000011
  0.9789177529999975  0.7607833029999966  0.0938638169999990
  0.7607973670000021  0.9789036880000026  0.5182221359999986
  0.5302334229999985  0.8776826420000035  0.4243583200000032
  0.9362735420000021  0.9716425080000022  0.2829055460000021
  0.7483538090000010  0.6595622560000010  0.0000000000000000
  0.8423136760000034  0.5656023900000022  0.1414527729999975
  0.5801388140000014  0.9913472459999966  0.0000000000000000
  0.6740986809999967  0.8973873799999978  0.1414527729999975
  0.7680585470000025  0.8034275130000026  0.2829055460000021
  0.8620184139999978  0.7094676469999968  0.4243583200000032
 
  0.00000000E+00  0.00000000E+00  0.00000000E+00
  0.00000000E+00  0.00000000E+00  0.00000000E+00
  0.00000000E+00  0.00000000E+00  0.00000000E+00
  0.00000000E+00  0.00000000E+00  0.00000000E+00
  0.00000000E+00  0.00000000E+00  0.00000000E+00
  0.00000000E+00  0.00000000E+00  0.00000000E+00
  0.00000000E+00  0.00000000E+00  0.00000000E+00
  0.00000000E+00  0.00000000E+00  0.00000000E+00
  0.00000000E+00  0.00000000E+00  0.00000000E+00
  0.00000000E+00  0.00000000E+00  0.00000000E+00
  0.00000000E+00  0.00000000E+00  0.00000000E+00
  0.00000000E+00  0.00000000E+00  0.00000000E+00
  0.00000000E+00  0.00000000E+00  0.00000000E+00
  0.00000000E+00  0.00000000E+00  0.00000000E+00
  0.00000000E+00  0.00000000E+00  0.00000000E+00
  0.00000000E+00  0.00000000E+00  0.00000000E+00
  0.00000000E+00  0.00000000E+00  0.00000000E+00
  0.00000000E+00  0.00000000E+00  0.00000000E+00
  0.00000000E+00  0.00000000E+00  0.00000000E+00
  0.00000000E+00  0.00000000E+00  0.00000000E+00
  0.00000000E+00  0.00000000E+00  0.00000000E+00
  0.00000000E+00  0.00000000E+00  0.00000000E+00
  0.00000000E+00  0.00000000E+00  0.00000000E+00
  0.00000000E+00  0.00000000E+00  0.00000000E+00
  0.00000000E+00  0.00000000E+00  0.00000000E+00
  0.00000000E+00  0.00000000E+00  0.00000000E+00
  0.00000000E+00  0.00000000E+00  0.00000000E+00
  0.00000000E+00  0.00000000E+00  0.00000000E+00
  0.00000000E+00  0.00000000E+00  0.00000000E+00
  0.00000000E+00  0.00000000E+00  0.00000000E+00
  0.00000000E+00  0.00000000E+00  0.00000000E+00
  0.00000000E+00  0.00000000E+00  0.00000000E+00
  0.00000000E+00  0.00000000E+00  0.00000000E+00
  0.00000000E+00  0.00000000E+00  0.00000000E+00
  0.00000000E+00  0.00000000E+00  0.00000000E+00
  0.00000000E+00  0.00000000E+00  0.00000000E+00
  0.00000000E+00  0.00000000E+00  0.00000000E+00
  0.00000000E+00  0.00000000E+00  0.00000000E+00
  0.00000000E+00  0.00000000E+00  0.00000000E+00
  0.00000000E+00  0.00000000E+00  0.00000000E+00
  0.00000000E+00  0.00000000E+00  0.00000000E+00
  0.00000000E+00  0.00000000E+00  0.00000000E+00
  0.00000000E+00  0.00000000E+00  0.00000000E+00
  0.00000000E+00  0.00000000E+00  0.00000000E+00
  0.00000000E+00  0.00000000E+00  0.00000000E+00
  0.00000000E+00  0.00000000E+00  0.00000000E+00
  0.00000000E+00  0.00000000E+00  0.00000000E+00
  0.00000000E+00  0.00000000E+00  0.00000000E+00
  0.00000000E+00  0.00000000E+00  0.00000000E+00
  0.00000000E+00  0.00000000E+00  0.00000000E+00
  0.00000000E+00  0.00000000E+00  0.00000000E+00
  0.00000000E+00  0.00000000E+00  0.00000000E+00
  0.00000000E+00  0.00000000E+00  0.00000000E+00
  0.00000000E+00  0.00000000E+00  0.00000000E+00
  0.00000000E+00  0.00000000E+00  0.00000000E+00
  0.00000000E+00  0.00000000E+00  0.00000000E+00
  0.00000000E+00  0.00000000E+00  0.00000000E+00
  0.00000000E+00  0.00000000E+00  0.00000000E+00
  0.00000000E+00  0.00000000E+00  0.00000000E+00
  0.00000000E+00  0.00000000E+00  0.00000000E+00
  0.00000000E+00  0.00000000E+00  0.00000000E+00
  0.00000000E+00  0.00000000E+00  0.00000000E+00
  0.00000000E+00  0.00000000E+00  0.00000000E+00
  0.00000000E+00  0.00000000E+00  0.00000000E+00
  0.00000000E+00  0.00000000E+00  0.00000000E+00
  0.00000000E+00  0.00000000E+00  0.00000000E+00
  0.00000000E+00  0.00000000E+00  0.00000000E+00
  0.00000000E+00  0.00000000E+00  0.00000000E+00
  0.00000000E+00  0.00000000E+00  0.00000000E+00
  0.00000000E+00  0.00000000E+00  0.00000000E+00
  0.00000000E+00  0.00000000E+00  0.00000000E+00
  0.00000000E+00  0.00000000E+00  0.00000000E+00
  0.00000000E+00  0.00000000E+00  0.00000000E+00
  0.00000000E+00  0.00000000E+00  0.00000000E+00
  0.00000000E+00  0.00000000E+00  0.00000000E+00
  0.00000000E+00  0.00000000E+00  0.00000000E+00
  0.00000000E+00  0.00000000E+00  0.00000000E+00
  0.00000000E+00  0.00000000E+00  0.00000000E+00
  0.00000000E+00  0.00000000E+00  0.00000000E+00
  0.00000000E+00  0.00000000E+00  0.00000000E+00
  0.00000000E+00  0.00000000E+00  0.00000000E+00
  0.00000000E+00  0.00000000E+00  0.00000000E+00
  0.00000000E+00  0.00000000E+00  0.00000000E+00
  0.00000000E+00  0.00000000E+00  0.00000000E+00
  0.00000000E+00  0.00000000E+00  0.00000000E+00
  0.00000000E+00  0.00000000E+00  0.00000000E+00
  0.00000000E+00  0.00000000E+00  0.00000000E+00
  0.00000000E+00  0.00000000E+00  0.00000000E+00
  0.00000000E+00  0.00000000E+00  0.00000000E+00
  0.00000000E+00  0.00000000E+00  0.00000000E+00
  0.00000000E+00  0.00000000E+00  0.00000000E+00
  0.00000000E+00  0.00000000E+00  0.00000000E+00
  0.00000000E+00  0.00000000E+00  0.00000000E+00
  0.00000000E+00  0.00000000E+00  0.00000000E+00
  0.00000000E+00  0.00000000E+00  0.00000000E+00
  0.00000000E+00  0.00000000E+00  0.00000000E+00
