Structure 1 made from -111-1.xsd file
1.0
       10.0628203371        5.0445621212        0.0000000000
        0.0000000000       11.2564630382        0.0000000000
        0.0000000000        0.0000000000       20.7564538638
   Ni    S
   48   48
Direct
     0.260920694     0.478780361     0.217794646
     0.354880561     0.384820495     0.359247419
     0.448840427     0.290860628     0.500700193
     0.166960828     0.072740242     0.076341873
     0.056118678     0.051479397     0.463327521
     0.274239063     0.333358996     0.038969202
     0.368198930     0.239399129     0.180421975
     0.462158796     0.145439263     0.321874748
     0.000301941     0.371502126     0.180421975
     0.094261807     0.277542259     0.321874748
     0.188221674     0.183582393     0.463327521
     0.406342059     0.465461992     0.038969202
     0.760920694     0.478780361     0.217794646
     0.854880561     0.384820495     0.359247419
     0.948840427     0.290860628     0.500700193
     0.666960828     0.072740242     0.076341873
     0.556118678     0.051479397     0.463327521
     0.774239063     0.333358996     0.038969202
     0.868198930     0.239399129     0.180421975
     0.962158796     0.145439263     0.321874748
     0.500301941     0.371502126     0.180421975
     0.594261807     0.277542259     0.321874748
     0.688221674     0.183582393     0.463327521
     0.906342059     0.465461992     0.038969202
     0.260920694     0.978780361     0.217794646
     0.354880561     0.884820495     0.359247419
     0.448840427     0.790860628     0.500700193
     0.166960828     0.572740242     0.076341873
     0.056118678     0.551479397     0.463327521
     0.274239063     0.833358996     0.038969202
     0.368198930     0.739399129     0.180421975
     0.462158796     0.645439263     0.321874748
     0.000301941     0.871502126     0.180421975
     0.094261807     0.777542259     0.321874748
     0.188221674     0.683582393     0.463327521
     0.406342059     0.965461992     0.038969202
     0.760920694     0.978780361     0.217794646
     0.854880561     0.884820495     0.359247419
     0.948840427     0.790860628     0.500700193
     0.666960828     0.572740242     0.076341873
     0.556118678     0.551479397     0.463327521
     0.774239063     0.833358996     0.038969202
     0.868198930     0.739399129     0.180421975
     0.962158796     0.645439263     0.321874748
     0.500301941     0.871502126     0.180421975
     0.594261807     0.777542259     0.321874748
     0.688221674     0.683582393     0.463327521
     0.906342059     0.965461992     0.038969202
     0.072877634     0.166823436     0.235316590
     0.166837501     0.072863570     0.376769363
     0.478917753     0.260783303     0.093863817
     0.260797367     0.478903688     0.518222136
     0.030233423     0.377682642     0.424358320
     0.436273542     0.471642508     0.282905546
     0.248353809     0.159562256     0.000000000
     0.342313676     0.065602390     0.141452773
     0.080138814     0.491347246     0.000000000
     0.174098681     0.397387380     0.141452773
     0.268058547     0.303427513     0.282905546
     0.362018414     0.209467647     0.424358320
     0.572877634     0.166823436     0.235316590
     0.666837501     0.072863570     0.376769363
     0.978917753     0.260783303     0.093863817
     0.760797367     0.478903688     0.518222136
     0.530233423     0.377682642     0.424358320
     0.936273542     0.471642508     0.282905546
     0.748353809     0.159562256     0.000000000
     0.842313676     0.065602390     0.141452773
     0.580138814     0.491347246     0.000000000
     0.674098681     0.397387380     0.141452773
     0.768058547     0.303427513     0.282905546
     0.862018414     0.209467647     0.424358320
     0.072877634     0.666823436     0.235316590
     0.166837501     0.572863570     0.376769363
     0.478917753     0.760783303     0.093863817
     0.260797367     0.978903688     0.518222136
     0.030233423     0.877682642     0.424358320
     0.436273542     0.971642508     0.282905546
     0.248353809     0.659562256     0.000000000
     0.342313676     0.565602390     0.141452773
     0.080138814     0.991347246     0.000000000
     0.174098681     0.897387380     0.141452773
     0.268058547     0.803427513     0.282905546
     0.362018414     0.709467647     0.424358320
     0.572877634     0.666823436     0.235316590
     0.666837501     0.572863570     0.376769363
     0.978917753     0.760783303     0.093863817
     0.760797367     0.978903688     0.518222136
     0.530233423     0.877682642     0.424358320
     0.936273542     0.971642508     0.282905546
     0.748353809     0.659562256     0.000000000
     0.842313676     0.565602390     0.141452773
     0.580138814     0.991347246     0.000000000
     0.674098681     0.897387380     0.141452773
     0.768058547     0.803427513     0.282905546
     0.862018414     0.709467647     0.424358320
