Type_039 Type_139 
1.0
9.5784099999999999e+00 0.0000000000000000e+00 0.0000000000000000e+00 
-4.7892049998999999e+00 1.0403353751099999e+01 0.0000000000000000e+00 
0.0000000000000000e+00 0.0000000000000000e+00 2.0846830137100000e+01 
Type_0 Type_1 
39 39 
Cartesian
   3.2331022656    5.3821577811    2.2213905143
   4.0556245203    6.3581094339    4.1718577448
   4.0556245155    8.2527059550    6.6749723917
   4.0556245202    0.6856046070    5.8406008427
   4.0556245250    2.5802011281    8.3437154896
   3.6013079999    4.1773873340   10.0621165642
  -0.7148426860    7.5192376796    1.2144044514
  -0.7335804749    9.1943618370    3.3374861958
  -0.7335804750    1.6272604994    2.5031146469
  -0.7335804798    3.5218570205    5.0062292938
  -0.7335804750    5.4164535415    7.5093439406
  -0.7895690069    7.3652949587    9.6424568784
   8.9069828082    0.2168145671    0.5259301183
   5.3209612149    0.7350127462    1.8513454520
   5.3209612213    2.7160119593    2.9914189133
   5.3209612117    4.6106084908    5.4945335602
   5.3209612165    6.5052050118    7.9976482071
   5.3209612135    9.0550288656    8.6452101611
   5.3209612165    0.8327001849    9.6663913050
   0.5317562213    5.5522643728    2.1570473644
   0.5317562165    7.4468608938    4.6601620112
   0.5317562213    9.3414574149    7.1632766581
   0.5317562212    1.7743560773    6.3289051091
   0.5317562165    3.6689525984    8.8320197560
  -4.2574487835   10.2831133073    3.8257904623
   5.3209612171    8.3505922396    2.5813883845
  -2.9921120921    8.2527059550    6.6749723917
  -2.1695898225    5.3821577731    2.2213905172
   6.5862979127    6.3581094339    4.1718577448
   6.5862979127    0.6856046070    5.8406008427
   6.5862979175    2.5802011281    8.3437154896
   7.0406144309    4.1773873344   10.0621165671
   1.7783551184    7.5192376838    1.2144044500
   1.7970929175    9.1943618370    3.3374861958
   1.7970929175    1.6272604994    2.5031146469
   1.7970929127    3.5218570205    5.0062292938
   1.7970929175    5.4164535415    7.5093439406
   1.8530814370    7.3652949589    9.6424568807
   1.7349395514    0.2168145241    0.5259301217
  -2.6462165454    6.0272031990    6.4865362472
  -2.6711682617    7.7526804012    8.7322409362
   6.9166973993    2.0594185438    1.8260553440
   6.9321934594    4.1326066779    3.9834216003
   6.6285175512    0.4737493968    7.9376701278
   6.7488619121    2.1820154418   10.3415119270
   1.9622856050    5.5631926253    0.6530129988
   2.1429884498    6.9688590914    3.1490500513
   2.1429884547    8.8634556124    5.6521646982
   2.1429884594    1.2963542645    4.8177931492
   2.1429884498    3.1909507959    7.3209077961
   1.9140010012    5.2148587022    9.5749175795
  -2.6462165453    9.8051114944    2.3146785024
   0.5317562143    1.6397766529    8.4927022948
  -4.2574487867    9.9857109879    6.8116550505
   5.3209612213    6.3578087666    2.2991758822
   5.3209612165    8.2524052877    4.8022905291
   5.3209612164    0.6853039501    3.9679189801
   5.3209612117    2.5799004711    6.4710336270
   5.3209612165    4.4744969922    8.9741482739
   0.5317562117    9.1940611801    1.4648043333
   0.5317562135    1.8087743920    0.8183232612
   0.5317562213    3.5215563531    3.1335474312
   0.5317562165    5.4161528742    5.6366620780
   0.5317562165    7.3107494057    8.1397767249
   0.5317562150    9.0095520139    9.9954473384
   3.7252250412    2.0594185575    1.8260553512
   3.7097289831    4.1326066779    3.9834216003
   3.7097289783    6.0272031990    6.4865362472
   3.7346806917    7.7526803981    8.7322409369
   4.0134048860    0.4737493953    7.9376701279
   3.8930605200    2.1820154416   10.3415119259
  -0.8987731612    5.5631926203    0.6530130003
  -1.0794760265    6.9688590914    3.1490500513
  -1.0794760217    8.8634556124    5.6521646982
  -1.0794760265    3.1909507959    7.3209077961
  -0.8504885708    5.2148587019    9.5749175784
   8.4989339831    1.2963542645    4.8177931492
   3.7097289784    9.8051114944    2.3146785024
