Type_038 Type_138                       
   1.00000000000000     
    16.8846940542000006    0.0000000000000000    0.0000000000000000
     0.0000000000000000    9.5784099999999999    0.0000000000000000
     0.0000000000000000    0.0000000000000000   16.2994563815000006
   Ty   Ty
    38    38
Direct
  0.7800463069997861  0.1452969540038467  0.1276188879992901
  0.8039233524532534  0.1459476271635864  0.2932906555108090
  0.2149096389518164  0.6288562028353368  0.1035363271510974
  0.2973302850015926  0.6452969540038467  0.2222399440027587
  0.4009406558963420  0.1426213254496318  0.1280312032350110
  0.4697582780024945  0.1452969540038467  0.2537802959977782
  0.9524743000006950  0.6452969540038467  0.1591592400004487
  0.9520504890760151  0.6441212085721943  0.3103188178251699
  0.1766513782379207  0.1504504550755286  0.0518585996560859
  0.1249022930015968  0.1452969540038467  0.1906995920016072
  0.0662030532511722  0.0737492017359855  0.3197652967749036
  0.6076183139988842  0.6452969540038467  0.0960785359981386
  0.6421862709974775  0.6452969540038467  0.2853206489989688
  0.9096131183247351  0.0042737983548449  0.1232742775201103
  0.9378896768615661  0.0054280306230368  0.2751605824161416
  0.4567856442670646  0.4415706104144661  0.0600869957977039
  0.4248667550014389  0.5131939539965416  0.1972404939988621
  0.4558814940259666  0.4841789644210266  0.3439101370744098
  0.6129157033749024  0.9363073648862397  0.0920511641175281
  0.5972947470014347  0.0131939539965416  0.2287808460000207
  0.0800107689996281  0.5131939539965416  0.1341597890026520
  0.1634365072379609  0.4276082059339714  0.2381734155076600
  0.2524387620005299  0.0131939539965416  0.1657001409976715
  0.2987925674226304  0.9594506191006644  0.2993002869308583
  0.7575352090089140  0.4414918909505872  0.1153405041123818
  0.7697227400023365  0.5131939539965416  0.2603211980011793
  0.9101480518728948  0.2876727138429018  0.1251954611821375
  0.9449595450046786  0.2796606164175444  0.2771099681168820
  0.3576995331637463  0.6450403401190812  0.0662813152729598
  0.4248667550014389  0.7773999540007139  0.1972404939988621
  0.4739497222698787  0.8378524300066488  0.3295990494749006
  0.6003485079185396  0.3653533840063261  0.0923455343828792
  0.5972947470014347  0.2773999540007139  0.2287808460000207
  0.0800107689996281  0.7773999540007139  0.1341597890026520
  0.1131509858495079  0.7954949392226922  0.2948980761441575
  0.2524387620005299  0.2773999540007139  0.1657001409976715
  0.7589965425883562  0.8524509729276559  0.1163272597208831
  0.7697227400023365  0.7773999540007139  0.2603211980011793
  0.9600494847916892  0.1391328472679731  0.3707261656565706
  0.9914612059989238  0.1452969540038467  0.1889491030017183
  0.4741772270021372  0.6452969540038467  0.0943280459982105
  0.5087451840007304  0.6452969540038467  0.2835701589990478
  0.6466052199971131  0.1452969540038467  0.1258683989994012
  0.6804574976969775  0.1471013378420878  0.2883890543389640
  0.1115157191036928  0.6465150859798214  0.0398365280351882
  0.1638891979989197  0.6452969540038467  0.2204894550028698
  0.2946512516738480  0.1449711345202402  0.0683510783258114
  0.3359796916420237  0.1385377715090499  0.2377102579137329
  0.8190332129980220  0.6452969540038467  0.1574087510005597
  0.8352856144285212  0.6451441070073187  0.3354359468764585
  0.8159929549610538  0.2969971635897792  0.0450943913892914
  0.8290610549983839  0.3135119539986277  0.2207824650019887
  0.3117770760015972  0.8135119539986277  0.1261614079984881
  0.3582863781884882  0.7770072278593219  0.3081163492053705
  0.4842050690024990  0.3135119539986277  0.1577017609996787
  0.5178688763107857  0.3068110342321972  0.3253735935094966
  0.0014890469983797  0.8135119539986277  0.2523228169970153
  0.9677162011789946  0.8213179455045250  0.0863927730864873
  0.1419535529519322  0.3277949724327911  0.1174574802428978
  0.1220995301296099  0.2607755727933991  0.3025203645685153
  0.6737200453964007  0.7896830983430476  0.0291896475357305
  0.6566330619974821  0.8135119539986277  0.1892421130008373
  0.6920794838502431  0.7957971770053689  0.3549567457026797
  0.3117770760015972  0.4770819539986277  0.1261614079984881
  0.3455865269260556  0.4838614225847522  0.2951576436353065
  0.8154667726463813  0.9959442658750248  0.0434350330483113
  0.8290610549983839  0.9770819539986277  0.2207824650019887
  0.0014890469983797  0.4770819539986277  0.2523228169970153
  0.9672310545856533  0.4698069903668767  0.0864262229075834
  0.4842050690024990  0.9770819539986277  0.1577017609996787
  0.5314502395598879  0.0202427524818845  0.3358106790305300
  0.6708773073612377  0.4982188509470760  0.0284364093962068
  0.6566330619974821  0.4770819539986277  0.1892421130008373
  0.6923023907911627  0.4951199716341250  0.3549618076076939
  0.1405477273074851  0.9701095953608174  0.1091038277336907
  0.1739170399992886  0.9770819539986277  0.2838631689981668
 
  0.00000000E+00  0.00000000E+00  0.00000000E+00
  0.00000000E+00  0.00000000E+00  0.00000000E+00
  0.00000000E+00  0.00000000E+00  0.00000000E+00
  0.00000000E+00  0.00000000E+00  0.00000000E+00
  0.00000000E+00  0.00000000E+00  0.00000000E+00
  0.00000000E+00  0.00000000E+00  0.00000000E+00
  0.00000000E+00  0.00000000E+00  0.00000000E+00
  0.00000000E+00  0.00000000E+00  0.00000000E+00
  0.00000000E+00  0.00000000E+00  0.00000000E+00
  0.00000000E+00  0.00000000E+00  0.00000000E+00
  0.00000000E+00  0.00000000E+00  0.00000000E+00
  0.00000000E+00  0.00000000E+00  0.00000000E+00
  0.00000000E+00  0.00000000E+00  0.00000000E+00
  0.00000000E+00  0.00000000E+00  0.00000000E+00
  0.00000000E+00  0.00000000E+00  0.00000000E+00
  0.00000000E+00  0.00000000E+00  0.00000000E+00
  0.00000000E+00  0.00000000E+00  0.00000000E+00
  0.00000000E+00  0.00000000E+00  0.00000000E+00
  0.00000000E+00  0.00000000E+00  0.00000000E+00
  0.00000000E+00  0.00000000E+00  0.00000000E+00
  0.00000000E+00  0.00000000E+00  0.00000000E+00
  0.00000000E+00  0.00000000E+00  0.00000000E+00
  0.00000000E+00  0.00000000E+00  0.00000000E+00
  0.00000000E+00  0.00000000E+00  0.00000000E+00
  0.00000000E+00  0.00000000E+00  0.00000000E+00
  0.00000000E+00  0.00000000E+00  0.00000000E+00
  0.00000000E+00  0.00000000E+00  0.00000000E+00
  0.00000000E+00  0.00000000E+00  0.00000000E+00
  0.00000000E+00  0.00000000E+00  0.00000000E+00
  0.00000000E+00  0.00000000E+00  0.00000000E+00
  0.00000000E+00  0.00000000E+00  0.00000000E+00
  0.00000000E+00  0.00000000E+00  0.00000000E+00
  0.00000000E+00  0.00000000E+00  0.00000000E+00
  0.00000000E+00  0.00000000E+00  0.00000000E+00
  0.00000000E+00  0.00000000E+00  0.00000000E+00
  0.00000000E+00  0.00000000E+00  0.00000000E+00
  0.00000000E+00  0.00000000E+00  0.00000000E+00
  0.00000000E+00  0.00000000E+00  0.00000000E+00
  0.00000000E+00  0.00000000E+00  0.00000000E+00
  0.00000000E+00  0.00000000E+00  0.00000000E+00
  0.00000000E+00  0.00000000E+00  0.00000000E+00
  0.00000000E+00  0.00000000E+00  0.00000000E+00
  0.00000000E+00  0.00000000E+00  0.00000000E+00
  0.00000000E+00  0.00000000E+00  0.00000000E+00
  0.00000000E+00  0.00000000E+00  0.00000000E+00
  0.00000000E+00  0.00000000E+00  0.00000000E+00
  0.00000000E+00  0.00000000E+00  0.00000000E+00
  0.00000000E+00  0.00000000E+00  0.00000000E+00
  0.00000000E+00  0.00000000E+00  0.00000000E+00
  0.00000000E+00  0.00000000E+00  0.00000000E+00
  0.00000000E+00  0.00000000E+00  0.00000000E+00
  0.00000000E+00  0.00000000E+00  0.00000000E+00
  0.00000000E+00  0.00000000E+00  0.00000000E+00
  0.00000000E+00  0.00000000E+00  0.00000000E+00
  0.00000000E+00  0.00000000E+00  0.00000000E+00
  0.00000000E+00  0.00000000E+00  0.00000000E+00
  0.00000000E+00  0.00000000E+00  0.00000000E+00
  0.00000000E+00  0.00000000E+00  0.00000000E+00
  0.00000000E+00  0.00000000E+00  0.00000000E+00
  0.00000000E+00  0.00000000E+00  0.00000000E+00
  0.00000000E+00  0.00000000E+00  0.00000000E+00
  0.00000000E+00  0.00000000E+00  0.00000000E+00
  0.00000000E+00  0.00000000E+00  0.00000000E+00
  0.00000000E+00  0.00000000E+00  0.00000000E+00
  0.00000000E+00  0.00000000E+00  0.00000000E+00
  0.00000000E+00  0.00000000E+00  0.00000000E+00
  0.00000000E+00  0.00000000E+00  0.00000000E+00
  0.00000000E+00  0.00000000E+00  0.00000000E+00
  0.00000000E+00  0.00000000E+00  0.00000000E+00
  0.00000000E+00  0.00000000E+00  0.00000000E+00
  0.00000000E+00  0.00000000E+00  0.00000000E+00
  0.00000000E+00  0.00000000E+00  0.00000000E+00
  0.00000000E+00  0.00000000E+00  0.00000000E+00
  0.00000000E+00  0.00000000E+00  0.00000000E+00
  0.00000000E+00  0.00000000E+00  0.00000000E+00
  0.00000000E+00  0.00000000E+00  0.00000000E+00
