Structure 25 made from -102-8.xsd file  
   1.00000000000000     
    11.2564630381999997    0.0000000000000000    0.0000000000000000
     0.0000000000000000    9.5784099999999999    0.0000000000000000
     0.0000000000000000    0.0000000000000000   17.1924924047000012
   Ni   S 
    26    26
Direct
  0.4393349899999990  0.4638879970000005  0.1628337710000025
  0.4911869239999973  0.4638879970000005  0.3422460099999967
  0.1634090299999968  0.9638879970000005  0.0731276510000001
  0.2152609640000023  0.9638879970000005  0.2525398900000013
  0.4393349899999990  0.1996819969999990  0.1628337710000025
  0.4911869239999973  0.1996819969999990  0.3422460099999967
  0.1634090299999968  0.6996819969999990  0.0731276510000001
  0.2152609640000023  0.6996819969999990  0.2525398900000013
  0.1306397029999999  0.3317849969999997  0.1391328759999979
  0.1824916369999983  0.3317849969999997  0.3185451149999992
  0.3547137280000001  0.8317849969999997  0.0494267560000026
  0.4065656619999984  0.8317849969999997  0.2288389949999967
  0.4584175970000004  0.8317849969999997  0.4082512350000016
  0.9393349899999990  0.4638879970000005  0.1628337710000025
  0.9911869239999973  0.4638879970000005  0.3422460099999967
  0.6634090299999968  0.9638879970000005  0.0731276510000001
  0.7152609640000023  0.9638879970000005  0.2525398900000013
  0.9393349899999990  0.1996819969999990  0.1628337710000025
  0.9911869239999973  0.1996819969999990  0.3422460099999967
  0.6634090299999968  0.6996819969999990  0.0731276510000001
  0.7152609640000023  0.6996819969999990  0.2525398900000013
  0.6306397029999999  0.3317849969999997  0.1391328759999979
  0.6824916369999983  0.3317849969999997  0.3185451149999992
  0.8547137280000001  0.8317849969999997  0.0494267560000026
  0.9065656619999984  0.8317849969999997  0.2288389949999967
  0.9584175970000004  0.8317849969999997  0.4082512350000016
  0.0596371030000000  0.1635699970000033  0.0595262900000009
  0.1114890380000020  0.1635699970000033  0.2389385290000021
  0.1633409720000003  0.1635699970000033  0.4183507680000034
  0.3355630630000022  0.6635699970000033  0.1492324089999997
  0.3874149970000005  0.6635699970000033  0.3286446489999975
  0.1114890380000020  0.4999999970000033  0.2389385290000021
  0.1633409720000003  0.4999999970000033  0.4183507680000034
  0.3355630630000022  0.9999999970000033  0.1492324089999997
  0.3678888029999996  0.3317849969999997  0.2691183589999966
  0.0401109100000028  0.8317849969999997  0.0000000000000000
  0.0919628440000011  0.8317849969999997  0.1794122390000013
  0.1438147779999994  0.8317849969999997  0.3588244780000025
  0.5596371030000000  0.1635699970000033  0.0595262900000009
  0.6114890380000020  0.1635699970000033  0.2389385290000021
  0.6633409720000003  0.1635699970000033  0.4183507680000034
  0.8355630630000022  0.6635699970000033  0.1492324089999997
  0.8874149970000005  0.6635699970000033  0.3286446489999975
  0.6114890380000020  0.4999999970000033  0.2389385290000021
  0.6633409720000003  0.4999999970000033  0.4183507680000034
  0.8355630630000022  0.9999999970000033  0.1492324089999997
  0.8874149970000005  0.9999999970000033  0.3286446489999975
  0.8160368690000013  0.3317849969999997  0.0897061200000024
  0.8678888029999996  0.3317849969999997  0.2691183589999966
  0.5401109100000028  0.8317849969999997  0.0000000000000000
  0.5919628440000011  0.8317849969999997  0.1794122390000013
  0.6438147779999994  0.8317849969999997  0.3588244780000025
 
  0.00000000E+00  0.00000000E+00  0.00000000E+00
  0.00000000E+00  0.00000000E+00  0.00000000E+00
  0.00000000E+00  0.00000000E+00  0.00000000E+00
  0.00000000E+00  0.00000000E+00  0.00000000E+00
  0.00000000E+00  0.00000000E+00  0.00000000E+00
  0.00000000E+00  0.00000000E+00  0.00000000E+00
  0.00000000E+00  0.00000000E+00  0.00000000E+00
  0.00000000E+00  0.00000000E+00  0.00000000E+00
  0.00000000E+00  0.00000000E+00  0.00000000E+00
  0.00000000E+00  0.00000000E+00  0.00000000E+00
  0.00000000E+00  0.00000000E+00  0.00000000E+00
  0.00000000E+00  0.00000000E+00  0.00000000E+00
  0.00000000E+00  0.00000000E+00  0.00000000E+00
  0.00000000E+00  0.00000000E+00  0.00000000E+00
  0.00000000E+00  0.00000000E+00  0.00000000E+00
  0.00000000E+00  0.00000000E+00  0.00000000E+00
  0.00000000E+00  0.00000000E+00  0.00000000E+00
  0.00000000E+00  0.00000000E+00  0.00000000E+00
  0.00000000E+00  0.00000000E+00  0.00000000E+00
  0.00000000E+00  0.00000000E+00  0.00000000E+00
  0.00000000E+00  0.00000000E+00  0.00000000E+00
  0.00000000E+00  0.00000000E+00  0.00000000E+00
  0.00000000E+00  0.00000000E+00  0.00000000E+00
  0.00000000E+00  0.00000000E+00  0.00000000E+00
  0.00000000E+00  0.00000000E+00  0.00000000E+00
  0.00000000E+00  0.00000000E+00  0.00000000E+00
  0.00000000E+00  0.00000000E+00  0.00000000E+00
  0.00000000E+00  0.00000000E+00  0.00000000E+00
  0.00000000E+00  0.00000000E+00  0.00000000E+00
  0.00000000E+00  0.00000000E+00  0.00000000E+00
  0.00000000E+00  0.00000000E+00  0.00000000E+00
  0.00000000E+00  0.00000000E+00  0.00000000E+00
  0.00000000E+00  0.00000000E+00  0.00000000E+00
  0.00000000E+00  0.00000000E+00  0.00000000E+00
  0.00000000E+00  0.00000000E+00  0.00000000E+00
  0.00000000E+00  0.00000000E+00  0.00000000E+00
  0.00000000E+00  0.00000000E+00  0.00000000E+00
  0.00000000E+00  0.00000000E+00  0.00000000E+00
  0.00000000E+00  0.00000000E+00  0.00000000E+00
  0.00000000E+00  0.00000000E+00  0.00000000E+00
  0.00000000E+00  0.00000000E+00  0.00000000E+00
  0.00000000E+00  0.00000000E+00  0.00000000E+00
  0.00000000E+00  0.00000000E+00  0.00000000E+00
  0.00000000E+00  0.00000000E+00  0.00000000E+00
  0.00000000E+00  0.00000000E+00  0.00000000E+00
  0.00000000E+00  0.00000000E+00  0.00000000E+00
  0.00000000E+00  0.00000000E+00  0.00000000E+00
  0.00000000E+00  0.00000000E+00  0.00000000E+00
  0.00000000E+00  0.00000000E+00  0.00000000E+00
  0.00000000E+00  0.00000000E+00  0.00000000E+00
  0.00000000E+00  0.00000000E+00  0.00000000E+00
  0.00000000E+00  0.00000000E+00  0.00000000E+00
