Type_048 Type_148                       
   1.00000000000000     
    11.2564630381999997    0.0000000000000000    0.0000000000000000
     5.0445621212000002   10.0628203370999998    0.0000000000000000
     0.0000000000000000    0.0000000000000000   22.5199559731999983
   Ty   Ty
    48    48
Direct
  0.2609206910021911  0.4787803719934516  0.2951977369987446
  0.3548805580032663  0.3848205049953179  0.4255735679992156
  0.0856142819995398  0.2844747756994082  0.0962784167509128
  0.1669608249997268  0.0727402529985923  0.1648219070018300
  0.9775102726543849  0.0024480475229396  0.4694149521686626
  0.2331780400411176  0.5130538853670785  0.0532937101488216
  0.2742390600059466  0.3333590059967975  0.1303758300013556
  0.3681989270014085  0.2393991400023623  0.2607516610018337
  0.4621587929986148  0.1454392730042287  0.3911274909987483
  0.0003019379965465  0.3715021359983197  0.2607516610018337
  0.0942618040026346  0.2775422690001932  0.3911274909987483
  0.4063420560008097  0.4654620020026954  0.1303758300013556
  0.7609206910021911  0.4787803719934516  0.2951977369987446
  0.8548805580032663  0.3848205049953179  0.4255735679992156
  0.0506046445608561  0.1911254896014825  0.4862255740699837
  0.6669608249997268  0.0727402529985923  0.1648219070018300
  0.5049382896384316  0.1398465925215504  0.4973685179415739
  0.7742390600059466  0.3333590059967975  0.1303758300013556
  0.8681989270014085  0.2393991400023623  0.2607516610018337
  0.9621587929986148  0.1454392730042287  0.3911274909987483
  0.5003019380054354  0.3715021359983197  0.2607516610018337
  0.5942618040026346  0.2775422690001932  0.3911274909987483
  0.7002197041113760  0.1839865733540051  0.5036276882511359
  0.9063420560008097  0.4654620020026954  0.1303758300013556
  0.9609169292314803  0.1565453837918724  0.0972469934579934
  0.2609206909999671  0.9787803719984183  0.2951977369987446
  0.3548805580010423  0.8848205050002917  0.4255735679992156
  0.5472680662998854  0.7003452911722192  0.4870510614387058
  0.0347507133840921  0.7063257782408456  0.0910387972667337
  0.1669608250019579  0.5727402529936185  0.1648219070018300
  0.2742390599992888  0.8333590059918237  0.1303758300013556
  0.3681989270036325  0.7393991399973885  0.2607516610018337
  0.4621587930008388  0.6454392729992620  0.3911274909987483
  0.0003019379987776  0.8715021359933530  0.2607516610018337
  0.0942618040048657  0.7775422689952194  0.3911274909987483
  0.2251625080792294  0.6413510900026580  0.4760446846147488
  0.4063420560030337  0.9654620019977287  0.1303758300013556
  0.7609206909999671  0.9787803719984183  0.2951977369987446
  0.8548805580010423  0.8848205050002917  0.4255735679992156
  0.6669608250019579  0.5727402529936185  0.1648219070018300
  0.4914141113547927  0.5059188480917598  0.4711435764184699
  0.7142661676584723  0.0241442677063688  0.0590783446949601
  0.7742390600081777  0.8333590059918237  0.1303758300013556
  0.8681989270036325  0.7393991399973885  0.2607516610018337
  0.9621587930008388  0.6454392729992620  0.3911274909987483
  0.5003019380076594  0.8715021359933530  0.2607516610018337
  0.5942618040048657  0.7775422689952194  0.3911274909987483
  0.9063420560030337  0.9654620019977287  0.1303758300013556
  0.0728776309965369  0.1668234470023151  0.3113475650016397
  0.1455016814658308  0.0216550835849247  0.4364558902644831
  0.3997593772967463  0.3416445416823137  0.0642661839224914
  0.4789177500002353  0.2607833129967503  0.1809717350002842
  0.0167636096502335  0.3797544188492665  0.4690990196016287
  0.4362735390021513  0.4716425189965960  0.3552099060015763
  0.2760157542205235  0.1509587784151734  0.1054230458765275
  0.3423136729996870  0.0656024000017297  0.2248340760002208
  0.0801388110039483  0.4913472569982247  0.0944582449997426
  0.1740986779961347  0.3973873900000910  0.2248340760002208
  0.2680585440010645  0.3034275239957154  0.3552099060015763
  0.3224605289676177  0.2232250241235434  0.4608833795968224
  0.5728776310054258  0.1668234470023151  0.3113475650016397
  0.6668374979976122  0.0728635800041815  0.4417233960021107
  0.8934726243156490  0.3476166671985013  0.0610478537585095
  0.9789177500091171  0.2607833129967503  0.1809717350002842
  0.5062346019959278  0.3232218278218184  0.4903792145927000
  0.9362735390021513  0.4716425189965960  0.3552099060015763
  0.7651135267016258  0.1565584640611846  0.1032377828032480
  0.8423136729996870  0.0656024000017297  0.2248340760002208
  0.5823065689333973  0.4808024419219947  0.1122109848042001
  0.6740986780050235  0.3973873900000910  0.2248340760002208
  0.7680585440010645  0.3034275239957154  0.3552099060015763
  0.8620184110021398  0.2094676569975888  0.4855857359984910
  0.0728776309987680  0.6668234469973413  0.3113475650016397
  0.1616871966192548  0.5504397216035670  0.4161596072502576
  0.3714805159522001  0.8682619551983350  0.0635967518854983
  0.4789177499980113  0.7607833130017170  0.1809717350002842
  0.0329220960282441  0.8028296176982366  0.4791210909266610
  0.4362735390043753  0.9716425189916222  0.3552099060015763
  0.2472531311485255  0.6603762025741489  0.1035036310672126
  0.3423136730019110  0.5656023999967630  0.2248340760002208
  0.0891190967138940  0.9635936145407129  0.1045566557191364
  0.1740986779983658  0.8973873899951244  0.2248340760002208
  0.2680585439988405  0.8034275240006892  0.3552099060015763
  0.3620184110043638  0.7094676569926150  0.4855857359984910
  0.5728776309987680  0.6668234469973413  0.3113475650016397
  0.6509363127981729  0.5377993483842332  0.4339135846947855
  0.8849578830025493  0.8547431789961522  0.0505959049989215
  0.9789177499980113  0.7607833130017170  0.1809717350002842
  0.5162437521849270  0.8889845515594317  0.4682980881734551
  0.9362735390043753  0.9716425189916222  0.3552099060015763
  0.7587578344048964  0.6571792764617541  0.1117795689163756
  0.8423136730019110  0.5656023999967630  0.2248340760002208
  0.5840274010385400  0.9810457623299911  0.1074759836955437
  0.6740986780072475  0.8973873899951244  0.2248340760002208
  0.7680585439988405  0.8034275240006892  0.3552099060015763
  0.8373565507686536  0.7249387966716228  0.4613938481613999
 
  0.00000000E+00  0.00000000E+00  0.00000000E+00
  0.00000000E+00  0.00000000E+00  0.00000000E+00
  0.00000000E+00  0.00000000E+00  0.00000000E+00
  0.00000000E+00  0.00000000E+00  0.00000000E+00
  0.00000000E+00  0.00000000E+00  0.00000000E+00
  0.00000000E+00  0.00000000E+00  0.00000000E+00
  0.00000000E+00  0.00000000E+00  0.00000000E+00
  0.00000000E+00  0.00000000E+00  0.00000000E+00
  0.00000000E+00  0.00000000E+00  0.00000000E+00
  0.00000000E+00  0.00000000E+00  0.00000000E+00
  0.00000000E+00  0.00000000E+00  0.00000000E+00
  0.00000000E+00  0.00000000E+00  0.00000000E+00
  0.00000000E+00  0.00000000E+00  0.00000000E+00
  0.00000000E+00  0.00000000E+00  0.00000000E+00
  0.00000000E+00  0.00000000E+00  0.00000000E+00
  0.00000000E+00  0.00000000E+00  0.00000000E+00
  0.00000000E+00  0.00000000E+00  0.00000000E+00
  0.00000000E+00  0.00000000E+00  0.00000000E+00
  0.00000000E+00  0.00000000E+00  0.00000000E+00
  0.00000000E+00  0.00000000E+00  0.00000000E+00
  0.00000000E+00  0.00000000E+00  0.00000000E+00
  0.00000000E+00  0.00000000E+00  0.00000000E+00
  0.00000000E+00  0.00000000E+00  0.00000000E+00
  0.00000000E+00  0.00000000E+00  0.00000000E+00
  0.00000000E+00  0.00000000E+00  0.00000000E+00
  0.00000000E+00  0.00000000E+00  0.00000000E+00
  0.00000000E+00  0.00000000E+00  0.00000000E+00
  0.00000000E+00  0.00000000E+00  0.00000000E+00
  0.00000000E+00  0.00000000E+00  0.00000000E+00
  0.00000000E+00  0.00000000E+00  0.00000000E+00
  0.00000000E+00  0.00000000E+00  0.00000000E+00
  0.00000000E+00  0.00000000E+00  0.00000000E+00
  0.00000000E+00  0.00000000E+00  0.00000000E+00
  0.00000000E+00  0.00000000E+00  0.00000000E+00
  0.00000000E+00  0.00000000E+00  0.00000000E+00
  0.00000000E+00  0.00000000E+00  0.00000000E+00
  0.00000000E+00  0.00000000E+00  0.00000000E+00
  0.00000000E+00  0.00000000E+00  0.00000000E+00
  0.00000000E+00  0.00000000E+00  0.00000000E+00
  0.00000000E+00  0.00000000E+00  0.00000000E+00
  0.00000000E+00  0.00000000E+00  0.00000000E+00
  0.00000000E+00  0.00000000E+00  0.00000000E+00
  0.00000000E+00  0.00000000E+00  0.00000000E+00
  0.00000000E+00  0.00000000E+00  0.00000000E+00
  0.00000000E+00  0.00000000E+00  0.00000000E+00
  0.00000000E+00  0.00000000E+00  0.00000000E+00
  0.00000000E+00  0.00000000E+00  0.00000000E+00
  0.00000000E+00  0.00000000E+00  0.00000000E+00
  0.00000000E+00  0.00000000E+00  0.00000000E+00
  0.00000000E+00  0.00000000E+00  0.00000000E+00
  0.00000000E+00  0.00000000E+00  0.00000000E+00
  0.00000000E+00  0.00000000E+00  0.00000000E+00
  0.00000000E+00  0.00000000E+00  0.00000000E+00
  0.00000000E+00  0.00000000E+00  0.00000000E+00
  0.00000000E+00  0.00000000E+00  0.00000000E+00
  0.00000000E+00  0.00000000E+00  0.00000000E+00
  0.00000000E+00  0.00000000E+00  0.00000000E+00
  0.00000000E+00  0.00000000E+00  0.00000000E+00
  0.00000000E+00  0.00000000E+00  0.00000000E+00
  0.00000000E+00  0.00000000E+00  0.00000000E+00
  0.00000000E+00  0.00000000E+00  0.00000000E+00
  0.00000000E+00  0.00000000E+00  0.00000000E+00
  0.00000000E+00  0.00000000E+00  0.00000000E+00
  0.00000000E+00  0.00000000E+00  0.00000000E+00
  0.00000000E+00  0.00000000E+00  0.00000000E+00
  0.00000000E+00  0.00000000E+00  0.00000000E+00
  0.00000000E+00  0.00000000E+00  0.00000000E+00
  0.00000000E+00  0.00000000E+00  0.00000000E+00
  0.00000000E+00  0.00000000E+00  0.00000000E+00
  0.00000000E+00  0.00000000E+00  0.00000000E+00
  0.00000000E+00  0.00000000E+00  0.00000000E+00
  0.00000000E+00  0.00000000E+00  0.00000000E+00
  0.00000000E+00  0.00000000E+00  0.00000000E+00
  0.00000000E+00  0.00000000E+00  0.00000000E+00
  0.00000000E+00  0.00000000E+00  0.00000000E+00
  0.00000000E+00  0.00000000E+00  0.00000000E+00
  0.00000000E+00  0.00000000E+00  0.00000000E+00
  0.00000000E+00  0.00000000E+00  0.00000000E+00
  0.00000000E+00  0.00000000E+00  0.00000000E+00
  0.00000000E+00  0.00000000E+00  0.00000000E+00
  0.00000000E+00  0.00000000E+00  0.00000000E+00
  0.00000000E+00  0.00000000E+00  0.00000000E+00
  0.00000000E+00  0.00000000E+00  0.00000000E+00
  0.00000000E+00  0.00000000E+00  0.00000000E+00
  0.00000000E+00  0.00000000E+00  0.00000000E+00
  0.00000000E+00  0.00000000E+00  0.00000000E+00
  0.00000000E+00  0.00000000E+00  0.00000000E+00
  0.00000000E+00  0.00000000E+00  0.00000000E+00
  0.00000000E+00  0.00000000E+00  0.00000000E+00
  0.00000000E+00  0.00000000E+00  0.00000000E+00
  0.00000000E+00  0.00000000E+00  0.00000000E+00
  0.00000000E+00  0.00000000E+00  0.00000000E+00
  0.00000000E+00  0.00000000E+00  0.00000000E+00
  0.00000000E+00  0.00000000E+00  0.00000000E+00
  0.00000000E+00  0.00000000E+00  0.00000000E+00
  0.00000000E+00  0.00000000E+00  0.00000000E+00
