Type_036 Type_136                       
   1.00000000000000     
    10.0797329848999997    0.0000000000000000    0.0000000000000000
     3.5732980426999998    9.4251025535000004    0.0000000000000000
     0.0000000000000000    0.0000000000000000   20.5101398818000007
   Ty   Ty
    36    36
Direct
  0.3743321510001962  0.7513621960081736  0.0951123470021287
  0.5246006629991058  0.6010936830067877  0.2231223169989605
  0.6748691759937060  0.4508251710027409  0.3511322870006666
  0.7764821825477881  0.3343087884948162  0.4664077299974281
  0.5622742151970570  0.1656634099774550  0.0730097206761968
  0.7577549890003752  0.0346060250006417  0.1377823369994502
  0.0301959547612611  0.7600215204915628  0.3815351374928397
  0.9080235009991213  0.8843375130072033  0.2657923070011563
  0.1411778259947809  0.3178498540037111  0.1804523270016389
  0.2914463379972858  0.1675813419996643  0.3084622969984707
  0.4120721228996089  0.0412538338222745  0.4206647633425504
  0.9872902908284402  0.4660593092611833  0.0852284404286863
  0.0099400030046297  0.1157543439986100  0.4115002529987279
  0.5726445926152408  0.5640514715275771  0.0495738870168410
  0.7094029779912745  0.4162913690040426  0.1554803120006838
  0.8596714909921985  0.2660228560026567  0.2834902830018962
  0.0928258159976139  0.6995351980071192  0.1981503019980053
  0.2329859469906239  0.5632231386945179  0.3124654045966224
  0.5535898649685365  0.3375563915342781  0.4205756934429559
  0.9425573029968604  0.8498037100005575  0.0701403320011735
  0.3259801409932734  0.1330475390036270  0.1128103219984951
  0.4762486529957854  0.9827790269995802  0.2408202920002012
  0.6086264510094068  0.8515974687850374  0.3544108496768601
  0.8289190073601063  0.6832456353282481  0.3822868231755763
  0.0267071080063772  0.3350628401520481  0.4372408497300313
  0.6220935525661631  0.7904559900553423  0.0824650819520159
  0.7491048209982267  0.6407955260027620  0.1893013150020124
  0.8993733330007316  0.4905270139987152  0.3173112849988442
  0.9822591459974817  0.0743078679966089  0.1039613339981216
  0.1325276580025516  0.9240393550058386  0.2319713049993339
  0.2827961709971518  0.7737708430017847  0.3599812750010400
  0.3867217616406506  0.5633199749246600  0.4774619244888640
  0.2467476192633029  0.5223522873999684  0.0446366849800199
  0.3656819830018065  0.3575516969996855  0.1466313240003174
  0.5159504960027306  0.2072831839982996  0.2746412950015227
  0.6553970156147102  0.0733530393410149  0.3897956750989451
  0.0638215769989046  0.2620847689962460  0.3413599199980482
  0.2012074250195113  0.1369502707236521  0.4431837670286143
  0.7632845529974901  0.5626217940016787  0.0853399799995103
  0.9135530649999950  0.4123532819976319  0.2133499500012164
  0.1467073900018150  0.8458656230047552  0.1280099700017061
  0.2969759029964152  0.6955971110007084  0.2560199399985379
  0.4472444149951542  0.5453285990072700  0.3840299100002440
  0.5766648019817708  0.4251006221372222  0.5079766045450143
  0.9716679411688318  0.0000638966097810  0.0157803474800886
  0.3544740414052256  0.2932475820195322  0.0517877139318088
  0.5301302279919042  0.1291094530051708  0.1706799599990205
  0.6803987400007401  0.9788409400037850  0.2986899300007266
  0.8111078160853467  0.8773477645109864  0.4153161959591856
  0.4119750537716200  0.9340722927551326  0.0653688470935165
  0.5279642239970954  0.7979421230071608  0.1714727689995357
  0.6782327359996003  0.6476736110031140  0.2994827390012418
  0.8285012490005244  0.4974050980017282  0.4274927089980665
  0.7515940122870006  0.2255275301604698  0.0987429873989853
  0.9113870609952599  0.0811859519996290  0.2141427590017244
  0.0616555739960205  0.9309174400061906  0.3421527289985562
  0.2047818369452798  0.7098123925363211  0.4420659741792221
  0.1445413860006752  0.5146982940040843  0.1288027790022142
  0.2948098990015993  0.3644297810026984  0.2568127489990459
  0.4450784109941850  0.2141612689986516  0.3848227190007520
  0.0244923751752637  0.6385874300715102  0.0322998306358642
  0.3682310195874265  0.6366751220623712  0.0135193490682184
  0.4774093879924948  0.5120669590070150  0.1284063740022106
  0.6276779009934188  0.3617984460056292  0.2564163449985415
  0.7779464129959237  0.2115299340015824  0.3844263150002476
  0.9660671868043451  0.2091492781760778  0.5023322946101629
  0.0111007380015096  0.6450422749980973  0.2990863350007373
  0.7100116601110571  0.9463248375889393  0.0548159443123879
  0.8608322259926737  0.7953107879994832  0.1710763639995250
  0.0911472383426002  0.2316698966622042  0.0972121576981166
  0.2442550629970057  0.0785546170025526  0.2137463540017208
  0.3945235759977592  0.9282861050091142  0.3417563249980518
 
  0.00000000E+00  0.00000000E+00  0.00000000E+00
  0.00000000E+00  0.00000000E+00  0.00000000E+00
  0.00000000E+00  0.00000000E+00  0.00000000E+00
  0.00000000E+00  0.00000000E+00  0.00000000E+00
  0.00000000E+00  0.00000000E+00  0.00000000E+00
  0.00000000E+00  0.00000000E+00  0.00000000E+00
  0.00000000E+00  0.00000000E+00  0.00000000E+00
  0.00000000E+00  0.00000000E+00  0.00000000E+00
  0.00000000E+00  0.00000000E+00  0.00000000E+00
  0.00000000E+00  0.00000000E+00  0.00000000E+00
  0.00000000E+00  0.00000000E+00  0.00000000E+00
  0.00000000E+00  0.00000000E+00  0.00000000E+00
  0.00000000E+00  0.00000000E+00  0.00000000E+00
  0.00000000E+00  0.00000000E+00  0.00000000E+00
  0.00000000E+00  0.00000000E+00  0.00000000E+00
  0.00000000E+00  0.00000000E+00  0.00000000E+00
  0.00000000E+00  0.00000000E+00  0.00000000E+00
  0.00000000E+00  0.00000000E+00  0.00000000E+00
  0.00000000E+00  0.00000000E+00  0.00000000E+00
  0.00000000E+00  0.00000000E+00  0.00000000E+00
  0.00000000E+00  0.00000000E+00  0.00000000E+00
  0.00000000E+00  0.00000000E+00  0.00000000E+00
  0.00000000E+00  0.00000000E+00  0.00000000E+00
  0.00000000E+00  0.00000000E+00  0.00000000E+00
  0.00000000E+00  0.00000000E+00  0.00000000E+00
  0.00000000E+00  0.00000000E+00  0.00000000E+00
  0.00000000E+00  0.00000000E+00  0.00000000E+00
  0.00000000E+00  0.00000000E+00  0.00000000E+00
  0.00000000E+00  0.00000000E+00  0.00000000E+00
  0.00000000E+00  0.00000000E+00  0.00000000E+00
  0.00000000E+00  0.00000000E+00  0.00000000E+00
  0.00000000E+00  0.00000000E+00  0.00000000E+00
  0.00000000E+00  0.00000000E+00  0.00000000E+00
  0.00000000E+00  0.00000000E+00  0.00000000E+00
  0.00000000E+00  0.00000000E+00  0.00000000E+00
  0.00000000E+00  0.00000000E+00  0.00000000E+00
  0.00000000E+00  0.00000000E+00  0.00000000E+00
  0.00000000E+00  0.00000000E+00  0.00000000E+00
  0.00000000E+00  0.00000000E+00  0.00000000E+00
  0.00000000E+00  0.00000000E+00  0.00000000E+00
  0.00000000E+00  0.00000000E+00  0.00000000E+00
  0.00000000E+00  0.00000000E+00  0.00000000E+00
  0.00000000E+00  0.00000000E+00  0.00000000E+00
  0.00000000E+00  0.00000000E+00  0.00000000E+00
  0.00000000E+00  0.00000000E+00  0.00000000E+00
  0.00000000E+00  0.00000000E+00  0.00000000E+00
  0.00000000E+00  0.00000000E+00  0.00000000E+00
  0.00000000E+00  0.00000000E+00  0.00000000E+00
  0.00000000E+00  0.00000000E+00  0.00000000E+00
  0.00000000E+00  0.00000000E+00  0.00000000E+00
  0.00000000E+00  0.00000000E+00  0.00000000E+00
  0.00000000E+00  0.00000000E+00  0.00000000E+00
  0.00000000E+00  0.00000000E+00  0.00000000E+00
  0.00000000E+00  0.00000000E+00  0.00000000E+00
  0.00000000E+00  0.00000000E+00  0.00000000E+00
  0.00000000E+00  0.00000000E+00  0.00000000E+00
  0.00000000E+00  0.00000000E+00  0.00000000E+00
  0.00000000E+00  0.00000000E+00  0.00000000E+00
  0.00000000E+00  0.00000000E+00  0.00000000E+00
  0.00000000E+00  0.00000000E+00  0.00000000E+00
  0.00000000E+00  0.00000000E+00  0.00000000E+00
  0.00000000E+00  0.00000000E+00  0.00000000E+00
  0.00000000E+00  0.00000000E+00  0.00000000E+00
  0.00000000E+00  0.00000000E+00  0.00000000E+00
  0.00000000E+00  0.00000000E+00  0.00000000E+00
  0.00000000E+00  0.00000000E+00  0.00000000E+00
  0.00000000E+00  0.00000000E+00  0.00000000E+00
  0.00000000E+00  0.00000000E+00  0.00000000E+00
  0.00000000E+00  0.00000000E+00  0.00000000E+00
  0.00000000E+00  0.00000000E+00  0.00000000E+00
  0.00000000E+00  0.00000000E+00  0.00000000E+00
  0.00000000E+00  0.00000000E+00  0.00000000E+00
