Type_036 Type_136 
1.0
1.6884694054200001e+01 0.0000000000000000e+00 0.0000000000000000e+00 
0.0000000000000000e+00 9.5784099999999999e+00 0.0000000000000000e+00 
0.0000000000000000e+00 0.0000000000000000e+00 1.6173863021300001e+01 
Type_0 Type_1 
36 36 
Cartesian
   1.2434135945    8.6024826398    4.5578958251
   1.6807120367    8.8448295298    1.9259931188
   9.8312243663    4.0556245298    3.4682648957
  11.1995247137    3.2315507182    1.7420153827
   4.0084365668    4.0556245298    4.4964460857
   4.6011043903    3.9754517043    1.7630676679
  11.5929379325    0.5074047517    5.1081033163
  12.8550896099    8.7726054437    3.0091613849
   6.7314811349    8.8372866412    3.9100806200
   7.7444644288    8.2013480238    1.8894373090
  16.7342207184    3.4647407352    4.8707284330
  15.6233283412    4.0666697423    2.7076074373
   6.2517872148    4.1826302941    4.8609421837
   7.4411207106    4.4143360680    2.7033859171
  15.8283224530    0.5317562260    4.6030592091
  16.4119918310    0.5317562260    1.5185156554
   1.8550223070    5.3209612260    4.0889686222
   2.5381249204    5.3186396774    1.3209655434
   9.0458926844    9.5411744338    4.4751683441
  10.5931024514    0.5509338766    2.7104028079
   4.7664161983    0.5317562260    3.5748780192
   4.6356972046    0.5238518166    1.1663839716
  12.0872037954    4.9073168754    3.9670949968
  13.5005979229    5.3209612260    2.0326062423
   1.1894817965    1.6107784999    4.6711859796
   1.6807120367    1.7970929222    1.9259931188
  10.2028600609    6.5935559787    3.4671911962
   9.2692403334    5.5899589191    1.4245142109
   4.0084365668    6.5862979222    4.4964460857
   4.5799072837    6.6792994648    1.7576571306
  12.6725749362    2.6852945057    5.0831310225
  12.7426182745    1.7970929222    2.9541742926
   6.9198304750    1.7970929222    3.9823554826
   7.5710305982    2.1590276429    1.5712768716
  15.6733708536    7.2425525474    4.3972633482
  15.0242921800    7.7299766736    1.9162609249
   0.3925206131    1.9403980086    0.3727192679
   8.1585499708    6.4649833331    2.9310938573
  16.5402817152    1.8054021087    6.0439558570
  16.6559214603    2.1429884642    3.0845435538
   2.1606025520    6.9153280011    5.3588357761
   2.6826213142    6.9321934642    2.5704529669
  10.8331336608    2.1429884642    4.1127247437
  11.7418166505    1.3348827987    1.1992851309
   5.1102183657    2.3226479886    4.8743283666
   5.5940152224    2.1429884642    2.0563623800
  13.7445275690    6.9321934642    3.5986341568
  13.0887734981    7.3566705039    1.3045626856
   2.5133042869    0.5317562260    3.6034100560
   2.6932544507    0.5008623635    0.6443472964
  10.4084961491    5.3046502938    5.0526005984
  11.2474859946    5.3209612260    2.0611382791
   4.8563728739    5.3046295192    5.8819104271
   5.4246981782    5.3209612260    3.0893194691
   4.2525663229    5.3265033914    0.2481587804
  13.5752105248    0.5317562260    4.6315912459
  14.3391914682    0.2135271509    1.9282691497
   7.3463044950    0.4228859785    5.4920197494
   8.3360920864    0.5317562260    2.5752288660
  16.4866044329    5.3209612260    4.1175006429
   0.0026071164    8.3372463906    0.6426128099
   8.1113407622    3.4532977642    4.4936576210
   9.0812052810    3.5425593273    1.4782565259
  16.4559515121    8.5359471233    5.7916872514
  16.6559214603    8.4989339879    3.0845435538
   1.9549075384    3.5564385226    5.2166094604
   2.6826213142    3.7097289879    2.5704529669
  10.8331336608    8.4989339879    4.1127247437
   4.9004557494    8.4430701766    4.8039511149
   5.5940152224    8.4989339879    2.0563623800
  13.7445275690    3.7097289879    3.5986341568
  15.4160829065    5.6912881712    1.4529496046
