Structure 1 made from 0-21-4.xsd file   
   1.00000000000000     
     8.7007307979000004   -4.0053990701000002    0.0000000000000000
     0.0000000000000000   11.4527836704000006    0.0000000000000000
     0.0000000000000000    0.0000000000000000   19.9969559646999997
   Ni   S 
    36    36
Direct
  0.6379359149999999  0.4290455769999966  0.0511481690000011
  0.7289929229999998  0.6111595919999999  0.1763229530000032
  0.8200499309999998  0.7932736070000033  0.3014977380000019
  0.9111069380000032  0.9753876219999995  0.4266725219999969
  0.4563642609999974  0.0659022689999986  0.2597728100000012
  0.5474212689999973  0.2480162840000020  0.3849475940000033
  0.2742502460000011  0.7016742380000025  0.0094232410000004
  0.3653072540000011  0.8837882529999987  0.1345980250000025
  0.0016215850000023  0.1564169150000012  0.0928730970000018
  0.0926785919999986  0.3385309299999975  0.2180478809999968
  0.1837355999999986  0.5206449450000008  0.3432226660000026
  0.2747926070000020  0.7027589599999970  0.4683974499999977
  0.6860515309999968  0.2610708079999995  0.1172920269999977
  0.7771085380000002  0.4431848230000028  0.2424668109999999
  0.8681655460000002  0.6252988379999991  0.3676415959999986
  0.9592225540000001  0.8074128530000024  0.4928163800000007
  0.5955368839999977  0.0800415149999978  0.4510914520000000
  0.3223658619999981  0.5336994689999983  0.0755670989999970
  0.4134228690000015  0.7158134840000017  0.2007418829999992
  0.5044798770000014  0.8979275000000015  0.3259166679999979
  0.1407942080000026  0.1705561610000004  0.2841917399999971
  0.2318512149999989  0.3526701759999966  0.4093665239999993
  0.0497372000000027  0.9884421459999970  0.1590169549999985
  0.9586801920000028  0.8063281310000008  0.0338421710000034
  0.0842559310000013  0.7932736070000033  0.3014977380000019
  0.1753129379999976  0.9753876219999995  0.4266725219999969
  0.9021419150000014  0.4290455769999966  0.0511481690000011
  0.9931989230000013  0.6111595919999999  0.1763229530000032
  0.7205702609999989  0.0659022689999986  0.2597728100000012
  0.8116272689999988  0.2480162840000020  0.3849475940000033
  0.5384562460000026  0.7016742380000025  0.0094232410000004
  0.6295132540000026  0.8837882529999987  0.1345980250000025
  0.2658275849999967  0.1564169150000012  0.0928730970000018
  0.3568845920000001  0.3385309299999975  0.2180478809999968
  0.4479416000000001  0.5206449450000008  0.3432226660000026
  0.5389986070000035  0.7027589599999970  0.4683974499999977
  0.0134070980000018  0.5793519420000024  0.2920744959999979
  0.1044641060000018  0.7614659580000023  0.4172492809999966
  0.8312930829999985  0.2151239120000028  0.0417249280000007
  0.9223500909999984  0.3972379269999990  0.1668997120000029
  0.7407784370000030  0.0340946190000011  0.3755243530000030
  0.4676074139999997  0.4877525739999982  0.0000000000000000
  0.5586644219999997  0.6698665890000015  0.1251747840000021
  0.6497214290000031  0.8519806039999978  0.2503495679999972
  0.2860357599999972  0.1246092660000002  0.2086246399999965
  0.3770927670000006  0.3067232810000036  0.3337994239999986
  0.4681497750000005  0.4888372959999998  0.4589742089999973
  0.1949787519999973  0.9424952509999969  0.0834498560000014
  0.1342524949999984  0.1574727369999991  0.4581989590000006
  0.0431954880000021  0.9753587209999992  0.3330241749999985
  0.8610814729999987  0.6111306909999996  0.0826746070000013
  0.9521384800000021  0.7932447060000030  0.2078493910000034
  0.5884528110000034  0.0658733679999983  0.1661244630000027
  0.6795098190000033  0.2479873830000017  0.2912992469999978
  0.7705668259999996  0.4301013979999979  0.4164740309999999
  0.4973958030000034  0.8837593530000021  0.0409496790000006
  0.2247671419999975  0.3385020300000008  0.1243995350000020
  0.3158241490000009  0.5206160449999970  0.2495743189999970
  0.4068811570000008  0.7027300600000004  0.3747491029999992
  0.4979381639999971  0.8848440749999966  0.4999238879999979
  0.4948630829999985  0.2151239120000028  0.0417249280000007
  0.5859200909999984  0.3972379269999990  0.1668997120000029
  0.6769770980000018  0.5793519420000024  0.2920744959999979
  0.7680341060000018  0.7614659580000023  0.4172492809999966
  0.4043484370000030  0.0340946190000011  0.3755243530000030
  0.1311774139999997  0.4877525739999982  0.0000000000000000
  0.2222344219999997  0.6698665890000015  0.1251747840000021
  0.3132914290000031  0.8519806039999978  0.2503495679999972
  0.0406627670000006  0.3067232810000036  0.3337994239999986
  0.1317197750000005  0.4888372959999998  0.4589742089999973
  0.9496057599999972  0.1246092660000002  0.2086246399999965
  0.8585487519999973  0.9424952509999969  0.0834498560000014
 
  0.00000000E+00  0.00000000E+00  0.00000000E+00
  0.00000000E+00  0.00000000E+00  0.00000000E+00
  0.00000000E+00  0.00000000E+00  0.00000000E+00
  0.00000000E+00  0.00000000E+00  0.00000000E+00
  0.00000000E+00  0.00000000E+00  0.00000000E+00
  0.00000000E+00  0.00000000E+00  0.00000000E+00
  0.00000000E+00  0.00000000E+00  0.00000000E+00
  0.00000000E+00  0.00000000E+00  0.00000000E+00
  0.00000000E+00  0.00000000E+00  0.00000000E+00
  0.00000000E+00  0.00000000E+00  0.00000000E+00
  0.00000000E+00  0.00000000E+00  0.00000000E+00
  0.00000000E+00  0.00000000E+00  0.00000000E+00
  0.00000000E+00  0.00000000E+00  0.00000000E+00
  0.00000000E+00  0.00000000E+00  0.00000000E+00
  0.00000000E+00  0.00000000E+00  0.00000000E+00
  0.00000000E+00  0.00000000E+00  0.00000000E+00
  0.00000000E+00  0.00000000E+00  0.00000000E+00
  0.00000000E+00  0.00000000E+00  0.00000000E+00
  0.00000000E+00  0.00000000E+00  0.00000000E+00
  0.00000000E+00  0.00000000E+00  0.00000000E+00
  0.00000000E+00  0.00000000E+00  0.00000000E+00
  0.00000000E+00  0.00000000E+00  0.00000000E+00
  0.00000000E+00  0.00000000E+00  0.00000000E+00
  0.00000000E+00  0.00000000E+00  0.00000000E+00
  0.00000000E+00  0.00000000E+00  0.00000000E+00
  0.00000000E+00  0.00000000E+00  0.00000000E+00
  0.00000000E+00  0.00000000E+00  0.00000000E+00
  0.00000000E+00  0.00000000E+00  0.00000000E+00
  0.00000000E+00  0.00000000E+00  0.00000000E+00
  0.00000000E+00  0.00000000E+00  0.00000000E+00
  0.00000000E+00  0.00000000E+00  0.00000000E+00
  0.00000000E+00  0.00000000E+00  0.00000000E+00
  0.00000000E+00  0.00000000E+00  0.00000000E+00
  0.00000000E+00  0.00000000E+00  0.00000000E+00
  0.00000000E+00  0.00000000E+00  0.00000000E+00
  0.00000000E+00  0.00000000E+00  0.00000000E+00
  0.00000000E+00  0.00000000E+00  0.00000000E+00
  0.00000000E+00  0.00000000E+00  0.00000000E+00
  0.00000000E+00  0.00000000E+00  0.00000000E+00
  0.00000000E+00  0.00000000E+00  0.00000000E+00
  0.00000000E+00  0.00000000E+00  0.00000000E+00
  0.00000000E+00  0.00000000E+00  0.00000000E+00
  0.00000000E+00  0.00000000E+00  0.00000000E+00
  0.00000000E+00  0.00000000E+00  0.00000000E+00
  0.00000000E+00  0.00000000E+00  0.00000000E+00
  0.00000000E+00  0.00000000E+00  0.00000000E+00
  0.00000000E+00  0.00000000E+00  0.00000000E+00
  0.00000000E+00  0.00000000E+00  0.00000000E+00
  0.00000000E+00  0.00000000E+00  0.00000000E+00
  0.00000000E+00  0.00000000E+00  0.00000000E+00
  0.00000000E+00  0.00000000E+00  0.00000000E+00
  0.00000000E+00  0.00000000E+00  0.00000000E+00
  0.00000000E+00  0.00000000E+00  0.00000000E+00
  0.00000000E+00  0.00000000E+00  0.00000000E+00
  0.00000000E+00  0.00000000E+00  0.00000000E+00
  0.00000000E+00  0.00000000E+00  0.00000000E+00
  0.00000000E+00  0.00000000E+00  0.00000000E+00
  0.00000000E+00  0.00000000E+00  0.00000000E+00
  0.00000000E+00  0.00000000E+00  0.00000000E+00
  0.00000000E+00  0.00000000E+00  0.00000000E+00
  0.00000000E+00  0.00000000E+00  0.00000000E+00
  0.00000000E+00  0.00000000E+00  0.00000000E+00
  0.00000000E+00  0.00000000E+00  0.00000000E+00
  0.00000000E+00  0.00000000E+00  0.00000000E+00
  0.00000000E+00  0.00000000E+00  0.00000000E+00
  0.00000000E+00  0.00000000E+00  0.00000000E+00
  0.00000000E+00  0.00000000E+00  0.00000000E+00
  0.00000000E+00  0.00000000E+00  0.00000000E+00
  0.00000000E+00  0.00000000E+00  0.00000000E+00
  0.00000000E+00  0.00000000E+00  0.00000000E+00
  0.00000000E+00  0.00000000E+00  0.00000000E+00
  0.00000000E+00  0.00000000E+00  0.00000000E+00
