Structure 1 made from 0-21-4.xsd file
1.0
        8.7007307979       -4.0053990701        0.0000000000
        0.0000000000       11.4527836704       -0.0000000000
        0.0000000000        0.0000000000       19.9969559647
   Ni    S
   36   36
Direct
     0.637935915     0.429045577     0.051148169
     0.728992923     0.611159592     0.176322953
     0.820049931     0.793273607     0.301497738
     0.911106938     0.975387622     0.426672522
     0.456364261     0.065902269     0.259772810
     0.547421269     0.248016284     0.384947594
     0.274250246     0.701674238     0.009423241
     0.365307254     0.883788253     0.134598025
     0.001621585     0.156416915     0.092873097
     0.092678592     0.338530930     0.218047881
     0.183735600     0.520644945     0.343222666
     0.274792607     0.702758960     0.468397450
     0.686051531     0.261070808     0.117292027
     0.777108538     0.443184823     0.242466811
     0.868165546     0.625298838     0.367641596
     0.959222554     0.807412853     0.492816380
     0.595536884     0.080041515     0.451091452
     0.322365862     0.533699469     0.075567099
     0.413422869     0.715813484     0.200741883
     0.504479877     0.897927500     0.325916668
     0.140794208     0.170556161     0.284191740
     0.231851215     0.352670176     0.409366524
     0.049737200     0.988442146     0.159016955
     0.958680192     0.806328131     0.033842171
     0.084255931     0.793273607     0.301497738
     0.175312938     0.975387622     0.426672522
     0.902141915     0.429045577     0.051148169
     0.993198923     0.611159592     0.176322953
     0.720570261     0.065902269     0.259772810
     0.811627269     0.248016284     0.384947594
     0.538456246     0.701674238     0.009423241
     0.629513254     0.883788253     0.134598025
     0.265827585     0.156416915     0.092873097
     0.356884592     0.338530930     0.218047881
     0.447941600     0.520644945     0.343222666
     0.538998607     0.702758960     0.468397450
     0.013407098     0.579351942     0.292074496
     0.104464106     0.761465958     0.417249281
     0.831293083     0.215123912     0.041724928
     0.922350091     0.397237927     0.166899712
     0.740778437     0.034094619     0.375524353
     0.467607414     0.487752574     0.000000000
     0.558664422     0.669866589     0.125174784
     0.649721429     0.851980604     0.250349568
     0.286035760     0.124609266     0.208624640
     0.377092767     0.306723281     0.333799424
     0.468149775     0.488837296     0.458974209
     0.194978752     0.942495251     0.083449856
     0.134252495     0.157472737     0.458198959
     0.043195488     0.975358721     0.333024175
     0.861081473     0.611130691     0.082674607
     0.952138480     0.793244706     0.207849391
     0.588452811     0.065873368     0.166124463
     0.679509819     0.247987383     0.291299247
     0.770566826     0.430101398     0.416474031
     0.497395803     0.883759353     0.040949679
     0.224767142     0.338502030     0.124399535
     0.315824149     0.520616045     0.249574319
     0.406881157     0.702730060     0.374749103
     0.497938164     0.884844075     0.499923888
     0.494863083     0.215123912     0.041724928
     0.585920091     0.397237927     0.166899712
     0.676977098     0.579351942     0.292074496
     0.768034106     0.761465958     0.417249281
     0.404348437     0.034094619     0.375524353
     0.131177414     0.487752574     0.000000000
     0.222234422     0.669866589     0.125174784
     0.313291429     0.851980604     0.250349568
     0.040662767     0.306723281     0.333799424
     0.131719775     0.488837296     0.458974209
     0.949605760     0.124609266     0.208624640
     0.858548752     0.942495251     0.083449856
