Type_036 Type_136                       
   1.00000000000000     
    16.8846940542000006    0.0000000000000000    0.0000000000000000
     0.0000000000000000    9.5784099999999999    0.0000000000000000
     0.0000000000000000    0.0000000000000000   16.1690871196999986
   Ty   Ty
    36    36
Direct
  0.7800463069997861  0.1452969540038467  0.1205849920014614
  0.8002731832762393  0.1452466628803748  0.2867436027325994
  0.2973302850015926  0.6452969540038467  0.2159689649977494
  0.3819359852123512  0.2024015954944502  0.1235113336402804
  0.4697582780024945  0.1452969540038467  0.2477636230012692
  0.9524743000006950  0.6452969540038467  0.1523796499987995
  0.9623957096135811  0.6315487845477463  0.3012785506403048
  0.1249022930015968  0.1452969540038467  0.1841743080023193
  0.0711081224715073  0.0898614027902340  0.3143316105340119
  0.5711447428033907  0.6453915929261740  0.1590387821874586
  0.6421862709974775  0.6452969540038467  0.2795582809986072
  0.9096090143178870  0.0050377437904601  0.1166792115493891
  0.9408217158041126  0.0063831363660540  0.2698387283833839
  0.4434903758612876  0.4363904470261772  0.0519261424769653
  0.4248667550014389  0.5131939539965416  0.1907679470006585
  0.4416530123709919  0.4944496715843201  0.3369602242084468
  0.6170175427554483  0.9403463589572780  0.0859712286358061
  0.5972947470014347  0.0131939539965416  0.2225626049979965
  0.0800107689996281  0.5131939539965416  0.1271786320017156
  0.2524387620005299  0.0131939539965416  0.1589732889971387
  0.3377085797347732  0.9294727330110106  0.2639464432039773
  0.7767338026854986  0.4360580253090021  0.1176251441544167
  0.7697227400023365  0.5131939539965416  0.2543572630015163
  0.9234463953181020  0.3573165265738254  0.1314215043909925
  0.9421124103663061  0.2708699425583134  0.2745791933479538
  0.3532567288962127  0.6418421817712954  0.0771996446960301
  0.4248667550014389  0.7773999540007139  0.1907679470006585
  0.4711693275852440  0.8392409728128172  0.3251513071813790
  0.5284552783460441  0.1456982427459224  0.0878700299146118
  0.5972947470014347  0.2773999540007139  0.2225626049979965
  0.0800107689996281  0.7773999540007139  0.1271786320017156
  0.1193607655093203  0.7886492251219153  0.2720719510899414
  0.2524387620005299  0.2773999540007139  0.1589732889971387
  0.2650074407114857  0.2860901752796110  0.3076309495568026
  0.7630902112138074  0.8781266266217429  0.1182553956413770
  0.7697227400023365  0.7773999540007139  0.2543572630015163
  0.9650026024277878  0.1337117739583107  0.3684775545640449
  0.9914612059989238  0.1452969540038467  0.1824097040028008
  0.4741772270021372  0.6452969540038467  0.0870257299984232
  0.5087451840007304  0.6452969540038467  0.2777936780009966
  0.6466052199971131  0.1452969540038467  0.1188203880019429
  0.6777399929940415  0.1497171683296088  0.2851242965524676
  0.1103920869171091  0.6466116631570387  0.0347963553436799
  0.1657154291761671  0.6446056061079020  0.1916250619569624
  0.2807692472059173  0.1436004069464545  0.0623390151489716
  0.3363171909998286  0.1452969540038467  0.2459990199974769
  0.8190332129980220  0.6452969540038467  0.1506150459992810
  0.8443464142398085  0.6449076767020827  0.3221706118555829
  0.8359329483431850  0.2956643355525586  0.0471771536421883
  0.8290610549983839  0.3135119539986277  0.2144997340000927
  0.3130159059047557  0.8234138350206379  0.1409166197097136
  0.3621175274348047  0.7392950497107549  0.3144936432066388
  0.4842050690024990  0.3135119539986277  0.1509104190011499
  0.5116692193573371  0.3221735332168905  0.3150273559534469
  0.0014890469983797  0.8135119539986277  0.2462943919974308
  0.9680170141569349  0.8243422412801280  0.0791294896445436
  0.1408423552873614  0.3258328254689431  0.1146192033959679
  0.1471020410572450  0.2578890274690693  0.2924722669493391
  0.6566330619974821  0.8135119539986277  0.1827050760027547
  0.6953394973999849  0.7902673383682668  0.3521855182326235
  0.3316188283261923  0.4305183528372680  0.1054344811911463
  0.3327070042647691  0.4609464791442406  0.2825899613177896
  0.8172499761799088  0.0014835137564617  0.0336068945499051
  0.8290610549983839  0.9770819539986277  0.2144997340000927
  0.9919586822737685  0.4656325724937673  0.2248110186858483
  0.9757018054882707  0.5049730173170701  0.0573014391623374
  0.4842050690024990  0.9770819539986277  0.1509104190011499
  0.5306850257361404  0.0212730264521994  0.3313308319350199
  0.6566330619974821  0.4770819539986277  0.1827050760027547
  0.6935172093323914  0.4958219445398555  0.3502716561592152
  0.1401419615661581  0.9667689855727630  0.1109701762453810
  0.1739170399992886  0.9770819539986277  0.2780890500009505
 
  0.00000000E+00  0.00000000E+00  0.00000000E+00
  0.00000000E+00  0.00000000E+00  0.00000000E+00
  0.00000000E+00  0.00000000E+00  0.00000000E+00
  0.00000000E+00  0.00000000E+00  0.00000000E+00
  0.00000000E+00  0.00000000E+00  0.00000000E+00
  0.00000000E+00  0.00000000E+00  0.00000000E+00
  0.00000000E+00  0.00000000E+00  0.00000000E+00
  0.00000000E+00  0.00000000E+00  0.00000000E+00
  0.00000000E+00  0.00000000E+00  0.00000000E+00
  0.00000000E+00  0.00000000E+00  0.00000000E+00
  0.00000000E+00  0.00000000E+00  0.00000000E+00
  0.00000000E+00  0.00000000E+00  0.00000000E+00
  0.00000000E+00  0.00000000E+00  0.00000000E+00
  0.00000000E+00  0.00000000E+00  0.00000000E+00
  0.00000000E+00  0.00000000E+00  0.00000000E+00
  0.00000000E+00  0.00000000E+00  0.00000000E+00
  0.00000000E+00  0.00000000E+00  0.00000000E+00
  0.00000000E+00  0.00000000E+00  0.00000000E+00
  0.00000000E+00  0.00000000E+00  0.00000000E+00
  0.00000000E+00  0.00000000E+00  0.00000000E+00
  0.00000000E+00  0.00000000E+00  0.00000000E+00
  0.00000000E+00  0.00000000E+00  0.00000000E+00
  0.00000000E+00  0.00000000E+00  0.00000000E+00
  0.00000000E+00  0.00000000E+00  0.00000000E+00
  0.00000000E+00  0.00000000E+00  0.00000000E+00
  0.00000000E+00  0.00000000E+00  0.00000000E+00
  0.00000000E+00  0.00000000E+00  0.00000000E+00
  0.00000000E+00  0.00000000E+00  0.00000000E+00
  0.00000000E+00  0.00000000E+00  0.00000000E+00
  0.00000000E+00  0.00000000E+00  0.00000000E+00
  0.00000000E+00  0.00000000E+00  0.00000000E+00
  0.00000000E+00  0.00000000E+00  0.00000000E+00
  0.00000000E+00  0.00000000E+00  0.00000000E+00
  0.00000000E+00  0.00000000E+00  0.00000000E+00
  0.00000000E+00  0.00000000E+00  0.00000000E+00
  0.00000000E+00  0.00000000E+00  0.00000000E+00
  0.00000000E+00  0.00000000E+00  0.00000000E+00
  0.00000000E+00  0.00000000E+00  0.00000000E+00
  0.00000000E+00  0.00000000E+00  0.00000000E+00
  0.00000000E+00  0.00000000E+00  0.00000000E+00
  0.00000000E+00  0.00000000E+00  0.00000000E+00
  0.00000000E+00  0.00000000E+00  0.00000000E+00
  0.00000000E+00  0.00000000E+00  0.00000000E+00
  0.00000000E+00  0.00000000E+00  0.00000000E+00
  0.00000000E+00  0.00000000E+00  0.00000000E+00
  0.00000000E+00  0.00000000E+00  0.00000000E+00
  0.00000000E+00  0.00000000E+00  0.00000000E+00
  0.00000000E+00  0.00000000E+00  0.00000000E+00
  0.00000000E+00  0.00000000E+00  0.00000000E+00
  0.00000000E+00  0.00000000E+00  0.00000000E+00
  0.00000000E+00  0.00000000E+00  0.00000000E+00
  0.00000000E+00  0.00000000E+00  0.00000000E+00
  0.00000000E+00  0.00000000E+00  0.00000000E+00
  0.00000000E+00  0.00000000E+00  0.00000000E+00
  0.00000000E+00  0.00000000E+00  0.00000000E+00
  0.00000000E+00  0.00000000E+00  0.00000000E+00
  0.00000000E+00  0.00000000E+00  0.00000000E+00
  0.00000000E+00  0.00000000E+00  0.00000000E+00
  0.00000000E+00  0.00000000E+00  0.00000000E+00
  0.00000000E+00  0.00000000E+00  0.00000000E+00
  0.00000000E+00  0.00000000E+00  0.00000000E+00
  0.00000000E+00  0.00000000E+00  0.00000000E+00
  0.00000000E+00  0.00000000E+00  0.00000000E+00
  0.00000000E+00  0.00000000E+00  0.00000000E+00
  0.00000000E+00  0.00000000E+00  0.00000000E+00
  0.00000000E+00  0.00000000E+00  0.00000000E+00
  0.00000000E+00  0.00000000E+00  0.00000000E+00
  0.00000000E+00  0.00000000E+00  0.00000000E+00
  0.00000000E+00  0.00000000E+00  0.00000000E+00
  0.00000000E+00  0.00000000E+00  0.00000000E+00
  0.00000000E+00  0.00000000E+00  0.00000000E+00
  0.00000000E+00  0.00000000E+00  0.00000000E+00
