Type_037 Type_137                       
   1.00000000000000     
    16.8846940542000006    0.0000000000000000    0.0000000000000000
     0.0000000000000000    9.5784099999999999    0.0000000000000000
     0.0000000000000000    0.0000000000000000   16.6546456851000002
   Ty   Ty
    37    37
Direct
  0.7800463049979740  0.1452969570001699  0.1234707970004862
  0.7989031934128903  0.1436273689161354  0.2826135516897210
  0.2170659981184713  0.6265368164862437  0.0984525967530487
  0.2973302840006866  0.6452969570001699  0.2160738940018092
  0.3894812225907174  0.1207953377648252  0.1296451552092606
  0.4697582760006824  0.1452969570001699  0.2469415940009725
  0.9524742979988829  0.6452969570001699  0.1543384960029286
  0.9740062554233333  0.6454671511033681  0.3171574009902614
  0.1710644011154869  0.1454624268850466  0.0464509795001007
  0.1249022909997848  0.1452969570001699  0.1852061949993669
  0.1114583069588946  0.1453550042648004  0.3273742858773545
  0.6421862690015914  0.6452969570001699  0.2778092929974108
  0.9130870331739942  0.0046369727752307  0.1229510766615718
  0.9417430189115379  0.0126864047373232  0.2704264843309971
  0.3628765883250296  0.6422103162737898  0.0669254087943258
  0.4248667529996268  0.5131939570033026  0.1916076000016602
  0.4650067128724160  0.4709627510098215  0.3307657297944431
  0.5304766554163294  0.1483297547922859  0.0929061461201997
  0.5972947460005287  0.0131939570033026  0.2224753000008235
  0.0800107669978161  0.5131939570033026  0.1298722020027796
  0.1118426619954249  0.5068335049554165  0.2953762880708481
  0.2524387599987179  0.0131939570033026  0.1607399009992179
  0.2913157421277930  0.9784233114368703  0.3067694329679327
  0.7775375694257463  0.4323459771506961  0.1190057175742396
  0.7697227380005245  0.5131939570033026  0.2533429989972618
  0.9085454604304246  0.2808602870726986  0.1185934561710340
  0.9433254309951806  0.2778722605839619  0.2695860676109660
  0.4201619750305952  0.8769375702334727  0.0624087043850992
  0.4248667529996268  0.7773999569970371  0.1916076000016602
  0.4647318658550503  0.8185505318419217  0.3319586578023817
  0.6416554114467417  0.3458217883448285  0.0870921269911875
  0.5972947460005287  0.2773999569970371  0.2224753000008235
  0.0800107669978161  0.7773999569970371  0.1298722020027796
  0.1117822680731706  0.7837985104208300  0.2954360060269536
  0.2524387599987179  0.2773999569970371  0.1607399009992179
  0.2904611918733622  0.3091972479148453  0.3084662197585004
  0.7697227380005245  0.7773999569970371  0.2533429989972618
  0.9939995085149462  0.1450808302213034  0.3527588956068968
  0.9914612039971118  0.1452969570001699  0.1834930380016431
  0.4770359166322251  0.6835850230883835  0.0931577739410017
  0.5087451819989184  0.6452969570001699  0.2760961359996870
  0.6466052180012269  0.1452969570001699  0.1217576390000445
  0.6766758241176376  0.1442288637884559  0.2841748222379934
  0.1130632232998678  0.6451060789003620  0.0384023491278569
  0.1638891969980136  0.6452969570001699  0.2143607369980813
  0.0769223979084757  0.6452691611655794  0.3821965163987073
  0.2892277174299878  0.1479708266820907  0.0634563157140917
  0.3363171889980094  0.1452969570001699  0.2452284360005237
  0.8216957653579087  0.6309531409179598  0.1593344932023442
  0.8499183739743472  0.6467277436547434  0.3149237428204401
  0.8151998425269724  0.2896809431836829  0.0374532493932307
  0.8290610530024907  0.3135119569949509  0.2146474980010069
  0.3117770739997852  0.8135119569949509  0.1220444000029630
  0.3495917441235292  0.7921304086481982  0.2966096883237483
  0.4842050670006870  0.3135119569949509  0.1529121000021263
  0.5247614912688334  0.2902270953112236  0.3227645413741342
  0.0014890459974737  0.8135119569949509  0.2455151969974452
  0.9677620468127728  0.8205176315380101  0.0839000858871515
  0.1404100400510515  0.3228242559360055  0.1074037659174181
  0.1739170379974695  0.3135119569949509  0.2763828959998875
  0.6581132861531458  0.8237581301907113  0.2078606583205271
  0.7036490120615895  0.7691449347856292  0.3541872073794607
  0.3117770739997852  0.4770819569949509  0.1220444000029630
  0.3502459380499658  0.4930265563700047  0.2931128374929841
  0.8236189542587979  0.0067487445724268  0.0438333245932157
  0.8290610530024907  0.9770819569949509  0.2146474980010069
  0.0014890459974737  0.4770819569949509  0.2455151969974452
  0.9664639291311801  0.4667248345184660  0.0850588725323291
  0.4842050670006870  0.9770819569949509  0.1529121000021263
  0.5246877821334479  0.9991462204687451  0.3225824447533299
  0.6656132158346324  0.4706675883784470  0.1838619097276606
  0.6910736784240115  0.4912085280229164  0.3448273333931056
  0.1396220061217832  0.9689422108784242  0.1076093645812790
  0.1739170379974695  0.9770819569949509  0.2763828959998875
 
  0.00000000E+00  0.00000000E+00  0.00000000E+00
  0.00000000E+00  0.00000000E+00  0.00000000E+00
  0.00000000E+00  0.00000000E+00  0.00000000E+00
  0.00000000E+00  0.00000000E+00  0.00000000E+00
  0.00000000E+00  0.00000000E+00  0.00000000E+00
  0.00000000E+00  0.00000000E+00  0.00000000E+00
  0.00000000E+00  0.00000000E+00  0.00000000E+00
  0.00000000E+00  0.00000000E+00  0.00000000E+00
  0.00000000E+00  0.00000000E+00  0.00000000E+00
  0.00000000E+00  0.00000000E+00  0.00000000E+00
  0.00000000E+00  0.00000000E+00  0.00000000E+00
  0.00000000E+00  0.00000000E+00  0.00000000E+00
  0.00000000E+00  0.00000000E+00  0.00000000E+00
  0.00000000E+00  0.00000000E+00  0.00000000E+00
  0.00000000E+00  0.00000000E+00  0.00000000E+00
  0.00000000E+00  0.00000000E+00  0.00000000E+00
  0.00000000E+00  0.00000000E+00  0.00000000E+00
  0.00000000E+00  0.00000000E+00  0.00000000E+00
  0.00000000E+00  0.00000000E+00  0.00000000E+00
  0.00000000E+00  0.00000000E+00  0.00000000E+00
  0.00000000E+00  0.00000000E+00  0.00000000E+00
  0.00000000E+00  0.00000000E+00  0.00000000E+00
  0.00000000E+00  0.00000000E+00  0.00000000E+00
  0.00000000E+00  0.00000000E+00  0.00000000E+00
  0.00000000E+00  0.00000000E+00  0.00000000E+00
  0.00000000E+00  0.00000000E+00  0.00000000E+00
  0.00000000E+00  0.00000000E+00  0.00000000E+00
  0.00000000E+00  0.00000000E+00  0.00000000E+00
  0.00000000E+00  0.00000000E+00  0.00000000E+00
  0.00000000E+00  0.00000000E+00  0.00000000E+00
  0.00000000E+00  0.00000000E+00  0.00000000E+00
  0.00000000E+00  0.00000000E+00  0.00000000E+00
  0.00000000E+00  0.00000000E+00  0.00000000E+00
  0.00000000E+00  0.00000000E+00  0.00000000E+00
  0.00000000E+00  0.00000000E+00  0.00000000E+00
  0.00000000E+00  0.00000000E+00  0.00000000E+00
  0.00000000E+00  0.00000000E+00  0.00000000E+00
  0.00000000E+00  0.00000000E+00  0.00000000E+00
  0.00000000E+00  0.00000000E+00  0.00000000E+00
  0.00000000E+00  0.00000000E+00  0.00000000E+00
  0.00000000E+00  0.00000000E+00  0.00000000E+00
  0.00000000E+00  0.00000000E+00  0.00000000E+00
  0.00000000E+00  0.00000000E+00  0.00000000E+00
  0.00000000E+00  0.00000000E+00  0.00000000E+00
  0.00000000E+00  0.00000000E+00  0.00000000E+00
  0.00000000E+00  0.00000000E+00  0.00000000E+00
  0.00000000E+00  0.00000000E+00  0.00000000E+00
  0.00000000E+00  0.00000000E+00  0.00000000E+00
  0.00000000E+00  0.00000000E+00  0.00000000E+00
  0.00000000E+00  0.00000000E+00  0.00000000E+00
  0.00000000E+00  0.00000000E+00  0.00000000E+00
  0.00000000E+00  0.00000000E+00  0.00000000E+00
  0.00000000E+00  0.00000000E+00  0.00000000E+00
  0.00000000E+00  0.00000000E+00  0.00000000E+00
  0.00000000E+00  0.00000000E+00  0.00000000E+00
  0.00000000E+00  0.00000000E+00  0.00000000E+00
  0.00000000E+00  0.00000000E+00  0.00000000E+00
  0.00000000E+00  0.00000000E+00  0.00000000E+00
  0.00000000E+00  0.00000000E+00  0.00000000E+00
  0.00000000E+00  0.00000000E+00  0.00000000E+00
  0.00000000E+00  0.00000000E+00  0.00000000E+00
  0.00000000E+00  0.00000000E+00  0.00000000E+00
  0.00000000E+00  0.00000000E+00  0.00000000E+00
  0.00000000E+00  0.00000000E+00  0.00000000E+00
  0.00000000E+00  0.00000000E+00  0.00000000E+00
  0.00000000E+00  0.00000000E+00  0.00000000E+00
  0.00000000E+00  0.00000000E+00  0.00000000E+00
  0.00000000E+00  0.00000000E+00  0.00000000E+00
  0.00000000E+00  0.00000000E+00  0.00000000E+00
  0.00000000E+00  0.00000000E+00  0.00000000E+00
  0.00000000E+00  0.00000000E+00  0.00000000E+00
  0.00000000E+00  0.00000000E+00  0.00000000E+00
  0.00000000E+00  0.00000000E+00  0.00000000E+00
  0.00000000E+00  0.00000000E+00  0.00000000E+00
