Structure 19 made from -111-8.xsd file  
   1.00000000000000     
    10.0628203370999998    5.0445621212000002    0.0000000000000000
     0.0000000000000000   11.2564630381999997    0.0000000000000000
     0.0000000000000000    0.0000000000000000   22.5199559731999983
   Ni   S 
    48    48
Direct
  0.2609206910000026  0.4787803720000028  0.2951977370000023
  0.3548805579999978  0.3848205050000004  0.4255735679999972
  0.0730009580000015  0.1667001189999979  0.0344460769999984
  0.1669608249999968  0.0727402529999992  0.1648219069999968
  0.0561186750000005  0.0514794070000022  0.5215033220000009
  0.1802791940000006  0.4273188729999973  0.0000000000000000
  0.2742390599999993  0.3333590060000020  0.1303758299999984
  0.3681989270000017  0.2393991400000033  0.2607516610000005
  0.4621587930000004  0.1454392730000009  0.3911274909999989
  0.0003019379999998  0.3715021359999966  0.2607516610000005
  0.0942618039999985  0.2775422690000013  0.3911274909999989
  0.1882216710000009  0.1835824030000026  0.5215033220000009
  0.4063420559999997  0.4654620020000024  0.1303758299999984
  0.7609206910000026  0.4787803720000028  0.2951977370000023
  0.8548805579999978  0.3848205050000004  0.4255735679999972
  0.5730009580000015  0.1667001189999979  0.0344460769999984
  0.6669608249999968  0.0727402529999992  0.1648219069999968
  0.6802791940000006  0.4273188729999973  0.0000000000000000
  0.7742390599999993  0.3333590060000020  0.1303758299999984
  0.8681989270000017  0.2393991400000033  0.2607516610000005
  0.9621587930000004  0.1454392730000009  0.3911274909999989
  0.5003019379999998  0.3715021359999966  0.2607516610000005
  0.5942618039999985  0.2775422690000013  0.3911274909999989
  0.6882216710000009  0.1835824030000026  0.5215033220000009
  0.9063420559999997  0.4654620020000024  0.1303758299999984
  0.2609206910000026  0.9787803720000028  0.2951977370000023
  0.3548805579999978  0.8848205050000004  0.4255735679999972
  0.1669608249999968  0.5727402529999992  0.1648219069999968
  0.0561186750000005  0.5514794070000022  0.5215033220000009
  0.1802791940000006  0.9273188729999973  0.0000000000000000
  0.2742390599999993  0.8333590060000020  0.1303758299999984
  0.3681989270000017  0.7393991400000033  0.2607516610000005
  0.4621587930000004  0.6454392730000009  0.3911274909999989
  0.0003019379999998  0.8715021359999966  0.2607516610000005
  0.0942618039999985  0.7775422690000013  0.3911274909999989
  0.4063420559999997  0.9654620020000024  0.1303758299999984
  0.7609206910000026  0.9787803720000028  0.2951977370000023
  0.8548805579999978  0.8848205050000004  0.4255735679999972
  0.6669608249999968  0.5727402529999992  0.1648219069999968
  0.6802791940000006  0.9273188729999973  0.0000000000000000
  0.7742390599999993  0.8333590060000020  0.1303758299999984
  0.8681989270000017  0.7393991400000033  0.2607516610000005
  0.9621587930000004  0.6454392730000009  0.3911274909999989
  0.5003019379999998  0.8715021359999966  0.2607516610000005
  0.5942618039999985  0.7775422690000013  0.3911274909999989
  0.6882216710000009  0.6835824030000026  0.5215033220000009
  0.9063420559999997  0.9654620020000024  0.1303758299999984
  0.8123821900000010  0.5594218840000025  0.0000000000000000
  0.0728776309999972  0.1668234469999987  0.3113475649999984
  0.1668374979999996  0.0728635800000035  0.4417233960000004
  0.3849578829999984  0.3547431790000033  0.0505959050000016
  0.4789177500000008  0.2607833129999975  0.1809717350000000
  0.0302334200000018  0.3776826519999972  0.4855857359999973
  0.4362735389999983  0.4716425189999995  0.3552099059999989
  0.2483538059999972  0.1595622660000018  0.0944582449999984
  0.3423136729999996  0.0656024000000031  0.2248340760000005
  0.0801388109999976  0.4913472570000010  0.0944582449999984
  0.1740986780000000  0.3973873899999987  0.2248340760000005
  0.2680585439999987  0.3034275239999999  0.3552099059999989
  0.3620184110000011  0.2094676569999976  0.4855857359999973
  0.5728776309999972  0.1668234469999987  0.3113475649999984
  0.6668374979999996  0.0728635800000035  0.4417233960000004
  0.8849578829999984  0.3547431790000033  0.0505959050000016
  0.9789177500000008  0.2607833129999975  0.1809717350000000
  0.5302334200000018  0.3776826519999972  0.4855857359999973
  0.9362735389999983  0.4716425189999995  0.3552099059999989
  0.7483538059999972  0.1595622660000018  0.0944582449999984
  0.8423136729999996  0.0656024000000031  0.2248340760000005
  0.5801388109999976  0.4913472570000010  0.0944582449999984
  0.6740986780000000  0.3973873899999987  0.2248340760000005
  0.7680585439999987  0.3034275239999999  0.3552099059999989
  0.8620184110000011  0.2094676569999976  0.4855857359999973
  0.0728776309999972  0.6668234469999987  0.3113475649999984
  0.1668374979999996  0.5728635800000035  0.4417233960000004
  0.3849578829999984  0.8547431790000033  0.0505959050000016
  0.4789177500000008  0.7607833129999975  0.1809717350000000
  0.0302334200000018  0.8776826519999972  0.4855857359999973
  0.4362735389999983  0.9716425189999995  0.3552099059999989
  0.2483538059999972  0.6595622660000018  0.0944582449999984
  0.3423136729999996  0.5656024000000031  0.2248340760000005
  0.0801388109999976  0.9913472570000010  0.0944582449999984
  0.1740986780000000  0.8973873899999987  0.2248340760000005
  0.2680585439999987  0.8034275239999999  0.3552099059999989
  0.3620184110000011  0.7094676569999976  0.4855857359999973
  0.5728776309999972  0.6668234469999987  0.3113475649999984
  0.6668374979999996  0.5728635800000035  0.4417233960000004
  0.8849578829999984  0.8547431790000033  0.0505959050000016
  0.9789177500000008  0.7607833129999975  0.1809717350000000
  0.5302334200000018  0.8776826519999972  0.4855857359999973
  0.9362735389999983  0.9716425189999995  0.3552099059999989
  0.7483538059999972  0.6595622660000018  0.0944582449999984
  0.8423136729999996  0.5656024000000031  0.2248340760000005
  0.5801388109999976  0.9913472570000010  0.0944582449999984
  0.6740986780000000  0.8973873899999987  0.2248340760000005
  0.7680585439999987  0.8034275239999999  0.3552099059999989
  0.8620184110000011  0.7094676569999976  0.4855857359999973
 
  0.00000000E+00  0.00000000E+00  0.00000000E+00
  0.00000000E+00  0.00000000E+00  0.00000000E+00
  0.00000000E+00  0.00000000E+00  0.00000000E+00
  0.00000000E+00  0.00000000E+00  0.00000000E+00
  0.00000000E+00  0.00000000E+00  0.00000000E+00
  0.00000000E+00  0.00000000E+00  0.00000000E+00
  0.00000000E+00  0.00000000E+00  0.00000000E+00
  0.00000000E+00  0.00000000E+00  0.00000000E+00
  0.00000000E+00  0.00000000E+00  0.00000000E+00
  0.00000000E+00  0.00000000E+00  0.00000000E+00
  0.00000000E+00  0.00000000E+00  0.00000000E+00
  0.00000000E+00  0.00000000E+00  0.00000000E+00
  0.00000000E+00  0.00000000E+00  0.00000000E+00
  0.00000000E+00  0.00000000E+00  0.00000000E+00
  0.00000000E+00  0.00000000E+00  0.00000000E+00
  0.00000000E+00  0.00000000E+00  0.00000000E+00
  0.00000000E+00  0.00000000E+00  0.00000000E+00
  0.00000000E+00  0.00000000E+00  0.00000000E+00
  0.00000000E+00  0.00000000E+00  0.00000000E+00
  0.00000000E+00  0.00000000E+00  0.00000000E+00
  0.00000000E+00  0.00000000E+00  0.00000000E+00
  0.00000000E+00  0.00000000E+00  0.00000000E+00
  0.00000000E+00  0.00000000E+00  0.00000000E+00
  0.00000000E+00  0.00000000E+00  0.00000000E+00
  0.00000000E+00  0.00000000E+00  0.00000000E+00
  0.00000000E+00  0.00000000E+00  0.00000000E+00
  0.00000000E+00  0.00000000E+00  0.00000000E+00
  0.00000000E+00  0.00000000E+00  0.00000000E+00
  0.00000000E+00  0.00000000E+00  0.00000000E+00
  0.00000000E+00  0.00000000E+00  0.00000000E+00
  0.00000000E+00  0.00000000E+00  0.00000000E+00
  0.00000000E+00  0.00000000E+00  0.00000000E+00
  0.00000000E+00  0.00000000E+00  0.00000000E+00
  0.00000000E+00  0.00000000E+00  0.00000000E+00
  0.00000000E+00  0.00000000E+00  0.00000000E+00
  0.00000000E+00  0.00000000E+00  0.00000000E+00
  0.00000000E+00  0.00000000E+00  0.00000000E+00
  0.00000000E+00  0.00000000E+00  0.00000000E+00
  0.00000000E+00  0.00000000E+00  0.00000000E+00
  0.00000000E+00  0.00000000E+00  0.00000000E+00
  0.00000000E+00  0.00000000E+00  0.00000000E+00
  0.00000000E+00  0.00000000E+00  0.00000000E+00
  0.00000000E+00  0.00000000E+00  0.00000000E+00
  0.00000000E+00  0.00000000E+00  0.00000000E+00
  0.00000000E+00  0.00000000E+00  0.00000000E+00
  0.00000000E+00  0.00000000E+00  0.00000000E+00
  0.00000000E+00  0.00000000E+00  0.00000000E+00
  0.00000000E+00  0.00000000E+00  0.00000000E+00
  0.00000000E+00  0.00000000E+00  0.00000000E+00
  0.00000000E+00  0.00000000E+00  0.00000000E+00
  0.00000000E+00  0.00000000E+00  0.00000000E+00
  0.00000000E+00  0.00000000E+00  0.00000000E+00
  0.00000000E+00  0.00000000E+00  0.00000000E+00
  0.00000000E+00  0.00000000E+00  0.00000000E+00
  0.00000000E+00  0.00000000E+00  0.00000000E+00
  0.00000000E+00  0.00000000E+00  0.00000000E+00
  0.00000000E+00  0.00000000E+00  0.00000000E+00
  0.00000000E+00  0.00000000E+00  0.00000000E+00
  0.00000000E+00  0.00000000E+00  0.00000000E+00
  0.00000000E+00  0.00000000E+00  0.00000000E+00
  0.00000000E+00  0.00000000E+00  0.00000000E+00
  0.00000000E+00  0.00000000E+00  0.00000000E+00
  0.00000000E+00  0.00000000E+00  0.00000000E+00
  0.00000000E+00  0.00000000E+00  0.00000000E+00
  0.00000000E+00  0.00000000E+00  0.00000000E+00
  0.00000000E+00  0.00000000E+00  0.00000000E+00
  0.00000000E+00  0.00000000E+00  0.00000000E+00
  0.00000000E+00  0.00000000E+00  0.00000000E+00
  0.00000000E+00  0.00000000E+00  0.00000000E+00
  0.00000000E+00  0.00000000E+00  0.00000000E+00
  0.00000000E+00  0.00000000E+00  0.00000000E+00
  0.00000000E+00  0.00000000E+00  0.00000000E+00
  0.00000000E+00  0.00000000E+00  0.00000000E+00
  0.00000000E+00  0.00000000E+00  0.00000000E+00
  0.00000000E+00  0.00000000E+00  0.00000000E+00
  0.00000000E+00  0.00000000E+00  0.00000000E+00
  0.00000000E+00  0.00000000E+00  0.00000000E+00
  0.00000000E+00  0.00000000E+00  0.00000000E+00
  0.00000000E+00  0.00000000E+00  0.00000000E+00
  0.00000000E+00  0.00000000E+00  0.00000000E+00
  0.00000000E+00  0.00000000E+00  0.00000000E+00
  0.00000000E+00  0.00000000E+00  0.00000000E+00
  0.00000000E+00  0.00000000E+00  0.00000000E+00
  0.00000000E+00  0.00000000E+00  0.00000000E+00
  0.00000000E+00  0.00000000E+00  0.00000000E+00
  0.00000000E+00  0.00000000E+00  0.00000000E+00
  0.00000000E+00  0.00000000E+00  0.00000000E+00
  0.00000000E+00  0.00000000E+00  0.00000000E+00
  0.00000000E+00  0.00000000E+00  0.00000000E+00
  0.00000000E+00  0.00000000E+00  0.00000000E+00
  0.00000000E+00  0.00000000E+00  0.00000000E+00
  0.00000000E+00  0.00000000E+00  0.00000000E+00
  0.00000000E+00  0.00000000E+00  0.00000000E+00
  0.00000000E+00  0.00000000E+00  0.00000000E+00
  0.00000000E+00  0.00000000E+00  0.00000000E+00
  0.00000000E+00  0.00000000E+00  0.00000000E+00
