Type_036 Type_136                       
   1.00000000000000     
    16.8846940542000006    0.0000000000000000    0.0000000000000000
     0.0000000000000000    9.5784099999999999    0.0000000000000000
     0.0000000000000000    0.0000000000000000   16.1690871196999986
   Ty   Ty
    36    36
Direct
  0.7601538668038472  0.2169283668166244  0.0750625242671390
  0.7396237283904838  0.1119949479819695  0.2081079064012386
  0.2141770209511407  0.6800744487550645  0.0953972103978984
  0.2973302850015926  0.6452969540038467  0.2159689649977494
  0.3871482693033457  0.1574408506735452  0.1254454454530531
  0.4697582780024945  0.1452969540038467  0.2477636230012692
  0.9524743000006950  0.6452969540038467  0.1523796499987995
  0.9732651269279131  0.6593752224116542  0.3051470527478699
  0.1249022930015968  0.1452969540038467  0.1841743080023193
  0.1379915164361805  0.1454539966967374  0.3431236422642883
  0.5700144683466135  0.6440000634030056  0.1596424380851431
  0.6421862709974775  0.6452969540038467  0.2795582809986072
  0.9176697958021833  0.9370527122246770  0.1385603274702092
  0.4122603020140900  0.3992716847785829  0.0597516082353806
  0.4248667550014389  0.5131939539965416  0.1907679470006585
  0.4574175323643956  0.4787869493579819  0.3384735262284551
  0.5286222473234474  0.1452189668013801  0.0875981697553172
  0.5972947470014347  0.0131939539965416  0.2225626049979965
  0.0800107689996281  0.5131939539965416  0.1271786320017156
  0.1118288181911282  0.5022363061927848  0.2906585682424847
  0.2524387620005299  0.0131939539965416  0.1589732889971387
  0.2872835069755624  0.9951716095990903  0.3190713048366405
  0.7584786313622516  0.4701671746458942  0.1055467567133519
  0.7697227400023365  0.5131939539965416  0.2543572630015163
  0.0151592928825579  0.3015097948615661  0.1681301526409484
  0.3579801043120767  0.6454735031910275  0.0583980528467549
  0.4248667550014389  0.7773999540007139  0.1907679470006585
  0.4567899541763651  0.8117560186711543  0.3376487527887875
  0.6268350486911700  0.3522101985715764  0.0786376224759664
  0.5972947470014347  0.2773999540007139  0.2225626049979965
  0.0800107689996281  0.7773999540007139  0.1271786320017156
  0.1024219295089850  0.7949248595748131  0.2797873464413598
  0.2524387620005299  0.2773999540007139  0.1589732889971387
  0.2881462284470473  0.2976962651734496  0.3182666753666084
  0.7643643636936162  0.8956086375922538  0.1266592694713609
  0.7697227400023365  0.7773999540007139  0.2543572630015163
  0.0366851863357240  0.1797874029405691  0.2759440105968594
  0.0039557017192990  0.0976834143767107  0.1282490989781024
  0.4741772270021372  0.6452969540038467  0.0870257299984232
  0.5087451840007304  0.6452969540038467  0.2777936780009966
  0.6466052199971131  0.1452969540038467  0.1188203880019429
  0.6604890932167038  0.1446470124686670  0.3013297324784503
  0.1132449651537755  0.6440405762647430  0.0313562508907665
  0.1638891979989197  0.6452969540038467  0.2142043620001388
  0.2822485841142353  0.1468752538051703  0.0631024145919099
  0.3363171909998286  0.1452969540038467  0.2459990199974769
  0.8190332129980220  0.6452969540038467  0.1506150459992810
  0.8517415458956847  0.6442426945181907  0.3141459024926263
  0.7208223350586920  0.3736449619717703  0.0001421890044213
  0.7926420517090094  0.3130700986280601  0.1893019056759684
  0.3117770760015972  0.8135119539986277  0.1191157609976301
  0.3438633501064672  0.8071970160078763  0.2928120280415598
  0.4842050690024990  0.3135119539986277  0.1509104190011499
  0.5188897622234805  0.2995856004075819  0.3236812555931792
  0.9926860402383610  0.8237783991810730  0.2245622489024797
  0.9716440045722408  0.7941981139145255  0.0615789403525966
  0.1323730503037481  0.3177357134534873  0.1079315064468744
  0.1739170399992886  0.3135119539986277  0.2780890500009505
  0.6566330619974821  0.8135119539986277  0.1827050760027547
  0.6946791305752029  0.7921218083168284  0.3515915622888599
  0.3117770760015972  0.4770819539986277  0.1191157609976301
  0.3439150721925941  0.4873523273695710  0.2953843684644966
  0.8312055405237828  0.0412262974857001  0.0675117760896953
  0.8287318002199342  0.9644651063694312  0.2301143077005747
  0.0014890469983797  0.4770819539986277  0.2462943919974308
  0.9688258665860090  0.4557894357414227  0.0874279101370945
  0.4842050690024990  0.9770819539986277  0.1509104190011499
  0.5188084119191387  0.9898226270957267  0.3223472139716392
  0.6566330619974821  0.4770819539986277  0.1827050760027547
  0.6976639067007468  0.5044990807555720  0.3531383853355052
  0.1454736554488534  0.9599324432029945  0.1070673858322380
  0.1739170399992886  0.9770819539986277  0.2780890500009505
 
  0.00000000E+00  0.00000000E+00  0.00000000E+00
  0.00000000E+00  0.00000000E+00  0.00000000E+00
  0.00000000E+00  0.00000000E+00  0.00000000E+00
  0.00000000E+00  0.00000000E+00  0.00000000E+00
  0.00000000E+00  0.00000000E+00  0.00000000E+00
  0.00000000E+00  0.00000000E+00  0.00000000E+00
  0.00000000E+00  0.00000000E+00  0.00000000E+00
  0.00000000E+00  0.00000000E+00  0.00000000E+00
  0.00000000E+00  0.00000000E+00  0.00000000E+00
  0.00000000E+00  0.00000000E+00  0.00000000E+00
  0.00000000E+00  0.00000000E+00  0.00000000E+00
  0.00000000E+00  0.00000000E+00  0.00000000E+00
  0.00000000E+00  0.00000000E+00  0.00000000E+00
  0.00000000E+00  0.00000000E+00  0.00000000E+00
  0.00000000E+00  0.00000000E+00  0.00000000E+00
  0.00000000E+00  0.00000000E+00  0.00000000E+00
  0.00000000E+00  0.00000000E+00  0.00000000E+00
  0.00000000E+00  0.00000000E+00  0.00000000E+00
  0.00000000E+00  0.00000000E+00  0.00000000E+00
  0.00000000E+00  0.00000000E+00  0.00000000E+00
  0.00000000E+00  0.00000000E+00  0.00000000E+00
  0.00000000E+00  0.00000000E+00  0.00000000E+00
  0.00000000E+00  0.00000000E+00  0.00000000E+00
  0.00000000E+00  0.00000000E+00  0.00000000E+00
  0.00000000E+00  0.00000000E+00  0.00000000E+00
  0.00000000E+00  0.00000000E+00  0.00000000E+00
  0.00000000E+00  0.00000000E+00  0.00000000E+00
  0.00000000E+00  0.00000000E+00  0.00000000E+00
  0.00000000E+00  0.00000000E+00  0.00000000E+00
  0.00000000E+00  0.00000000E+00  0.00000000E+00
  0.00000000E+00  0.00000000E+00  0.00000000E+00
  0.00000000E+00  0.00000000E+00  0.00000000E+00
  0.00000000E+00  0.00000000E+00  0.00000000E+00
  0.00000000E+00  0.00000000E+00  0.00000000E+00
  0.00000000E+00  0.00000000E+00  0.00000000E+00
  0.00000000E+00  0.00000000E+00  0.00000000E+00
  0.00000000E+00  0.00000000E+00  0.00000000E+00
  0.00000000E+00  0.00000000E+00  0.00000000E+00
  0.00000000E+00  0.00000000E+00  0.00000000E+00
  0.00000000E+00  0.00000000E+00  0.00000000E+00
  0.00000000E+00  0.00000000E+00  0.00000000E+00
  0.00000000E+00  0.00000000E+00  0.00000000E+00
  0.00000000E+00  0.00000000E+00  0.00000000E+00
  0.00000000E+00  0.00000000E+00  0.00000000E+00
  0.00000000E+00  0.00000000E+00  0.00000000E+00
  0.00000000E+00  0.00000000E+00  0.00000000E+00
  0.00000000E+00  0.00000000E+00  0.00000000E+00
  0.00000000E+00  0.00000000E+00  0.00000000E+00
  0.00000000E+00  0.00000000E+00  0.00000000E+00
  0.00000000E+00  0.00000000E+00  0.00000000E+00
  0.00000000E+00  0.00000000E+00  0.00000000E+00
  0.00000000E+00  0.00000000E+00  0.00000000E+00
  0.00000000E+00  0.00000000E+00  0.00000000E+00
  0.00000000E+00  0.00000000E+00  0.00000000E+00
  0.00000000E+00  0.00000000E+00  0.00000000E+00
  0.00000000E+00  0.00000000E+00  0.00000000E+00
  0.00000000E+00  0.00000000E+00  0.00000000E+00
  0.00000000E+00  0.00000000E+00  0.00000000E+00
  0.00000000E+00  0.00000000E+00  0.00000000E+00
  0.00000000E+00  0.00000000E+00  0.00000000E+00
  0.00000000E+00  0.00000000E+00  0.00000000E+00
  0.00000000E+00  0.00000000E+00  0.00000000E+00
  0.00000000E+00  0.00000000E+00  0.00000000E+00
  0.00000000E+00  0.00000000E+00  0.00000000E+00
  0.00000000E+00  0.00000000E+00  0.00000000E+00
  0.00000000E+00  0.00000000E+00  0.00000000E+00
  0.00000000E+00  0.00000000E+00  0.00000000E+00
  0.00000000E+00  0.00000000E+00  0.00000000E+00
  0.00000000E+00  0.00000000E+00  0.00000000E+00
  0.00000000E+00  0.00000000E+00  0.00000000E+00
  0.00000000E+00  0.00000000E+00  0.00000000E+00
  0.00000000E+00  0.00000000E+00  0.00000000E+00
