Type_048 Type_148                       
   1.00000000000000     
    11.2564630381999997    0.0000000000000000    0.0000000000000000
     5.0445621212000002   10.0628203370999998    0.0000000000000000
     0.0000000000000000    0.0000000000000000   22.5199559731999983
   Ty   Ty
    48    48
Direct
  0.2609206910021911  0.4787803719934516  0.2951977369987446
  0.3548805580032663  0.3848205049953179  0.4255735679992156
  0.5407060660425032  0.2178723409596159  0.4898090133402988
  0.1669608249997268  0.0727402529985923  0.1648219070018300
  0.2742390600059466  0.3333590059967975  0.1303758300013556
  0.3681989270014085  0.2393991400023623  0.2607516610018337
  0.4621587929986148  0.1454392730042287  0.3911274909987483
  0.0003019379965465  0.3715021359983197  0.2607516610018337
  0.0942618040026346  0.2775422690001932  0.3911274909987483
  0.1956773685306601  0.1818457445825103  0.4855458509427208
  0.4063420560008097  0.4654620020026954  0.1303758300013556
  0.2145831174545236  0.0265297260963422  0.0592021381163690
  0.7609206910021911  0.4787803719934516  0.2951977369987446
  0.8548805580032663  0.3848205049953179  0.4255735679992156
  0.6669608249997268  0.0727402529985923  0.1648219070018300
  0.5220501153300816  0.0143287353514978  0.4768580488469780
  0.7139477864697099  0.5235014094287394  0.0593012418181118
  0.7742390600059466  0.3333590059967975  0.1303758300013556
  0.8681989270014085  0.2393991400023623  0.2607516610018337
  0.9621587929986148  0.1454392730042287  0.3911274909987483
  0.5003019380054354  0.3715021359983197  0.2607516610018337
  0.5942618040026346  0.2775422690001932  0.3911274909987483
  0.9063420560008097  0.4654620020026954  0.1303758300013556
  0.2609206909999671  0.9787803719984183  0.2951977369987446
  0.3548805580010423  0.8848205050002917  0.4255735679992156
  0.0332528234109759  0.7056908890660480  0.0913077070331312
  0.1669608250019579  0.5727402529936185  0.1648219070018300
  0.0338972833746851  0.5359092322673931  0.4904763737746549
  0.2742390599992888  0.8333590059918237  0.1303758300013556
  0.3681989270036325  0.7393991399973885  0.2607516610018337
  0.4621587930008388  0.6454392729992620  0.3911274909987483
  0.0003019379987776  0.8715021359933530  0.2607516610018337
  0.0942618040048657  0.7775422689952194  0.3911274909987483
  0.1868966014123714  0.7094542753266921  0.4941556142358081
  0.4063420560030337  0.9654620019977287  0.1303758300013556
  0.7609206909999671  0.9787803719984183  0.2951977369987446
  0.8548805580010423  0.8848205050002917  0.4255735679992156
  0.9693486175800530  0.7774567246377586  0.5307415392385266
  0.6669608250019579  0.5727402529936185  0.1648219070018300
  0.5288668671759993  0.5710002388709938  0.4982029618153732
  0.7048826594243494  0.0341966614102489  0.0591765702599929
  0.7742390600081777  0.8333590059918237  0.1303758300013556
  0.8681989270036325  0.7393991399973885  0.2607516610018337
  0.9621587930008388  0.6454392729992620  0.3911274909987483
  0.5003019380076594  0.8715021359933530  0.2607516610018337
  0.5942618040048657  0.7775422689952194  0.3911274909987483
  0.6967424143578711  0.6840995952317570  0.5043340774074423
  0.9063420560030337  0.9654620019977287  0.1303758300013556
  0.0728776309965369  0.1668234470023151  0.3113475650016397
  0.1635670571889491  0.0712991644951444  0.4222824674887065
  0.3586622115475393  0.3810307753844882  0.0630402355221946
  0.4789177500002353  0.2607833129967503  0.1809717350002842
  0.0252500777245501  0.3581543560320242  0.4758274049537263
  0.4362735390021513  0.4716425189965960  0.3552099060015763
  0.2574774014601431  0.1578803085296698  0.1074141884903668
  0.3423136729996870  0.0656024000017297  0.2248340760002208
  0.0775117430392029  0.4975469177006957  0.1056678880781092
  0.1740986779961347  0.3973873900000910  0.2248340760002208
  0.2680585440010645  0.3034275239957154  0.3552099060015763
  0.3620184110021398  0.2094676569975888  0.4855857359984910
  0.5728776310054258  0.1668234470023151  0.3113475650016397
  0.6573239391669432  0.0694946725841632  0.4311019401571414
  0.8847809014231629  0.3552729620660529  0.0621334370842135
  0.9789177500091171  0.2607833129967503  0.1809717350002842
  0.5155299855069444  0.4030452168113356  0.4680050700384371
  0.9362735390021513  0.4716425189965960  0.3552099060015763
  0.7575949470888972  0.1577533444622219  0.1076201338352618
  0.8423136729996870  0.0656024000017297  0.2248340760002208
  0.5819367990096609  0.4818899442556770  0.1076294338800849
  0.6740986780050235  0.3973873900000910  0.2248340760002208
  0.7680585440010645  0.3034275239957154  0.3552099060015763
  0.8681580619604929  0.2212067822768589  0.4680687419479952
  0.0728776309987680  0.6668234469973413  0.3113475650016397
  0.1668374979998362  0.5728635799992148  0.4417233960021107
  0.3830527928730731  0.8563090017647355  0.0620101364612751
  0.4789177499980113  0.7607833130017170  0.1809717350002842
  0.0189182317430436  0.8821221871042724  0.4711750031895008
  0.4362735390043753  0.9716425189916222  0.3552099060015763
  0.2414448480579736  0.6622640457596205  0.1053731339139361
  0.3423136730019110  0.5656023999967630  0.2248340760002208
  0.0826597137290861  0.9829499698143849  0.1066549956828666
  0.1740986779983658  0.8973873899951244  0.2248340760002208
  0.2680585439988405  0.8034275240006892  0.3552099060015763
  0.3547931761872363  0.7219380722734456  0.4708492823706578
  0.5728776309987680  0.6668234469973413  0.3113475650016397
  0.6668374979998362  0.5728635799992148  0.4417233960021107
  0.8750767495241902  0.8639809650428063  0.0567002866666186
  0.9789177499980113  0.7607833130017170  0.1809717350002842
  0.5205968098667810  0.8360958613839955  0.4798319343145891
  0.9362735390043753  0.9716425189916222  0.3552099060015763
  0.7571146773185973  0.6561876600494827  0.1066447207427075
  0.8423136730019110  0.5656023999967630  0.2248340760002208
  0.5819462460355496  0.9818230893355349  0.1078533858365631
  0.6740986780072475  0.8973873899951244  0.2248340760002208
  0.7680585439988405  0.8034275240006892  0.3552099060015763
  0.8620184110043638  0.7094676569926150  0.4855857359984910
 
  0.00000000E+00  0.00000000E+00  0.00000000E+00
  0.00000000E+00  0.00000000E+00  0.00000000E+00
  0.00000000E+00  0.00000000E+00  0.00000000E+00
  0.00000000E+00  0.00000000E+00  0.00000000E+00
  0.00000000E+00  0.00000000E+00  0.00000000E+00
  0.00000000E+00  0.00000000E+00  0.00000000E+00
  0.00000000E+00  0.00000000E+00  0.00000000E+00
  0.00000000E+00  0.00000000E+00  0.00000000E+00
  0.00000000E+00  0.00000000E+00  0.00000000E+00
  0.00000000E+00  0.00000000E+00  0.00000000E+00
  0.00000000E+00  0.00000000E+00  0.00000000E+00
  0.00000000E+00  0.00000000E+00  0.00000000E+00
  0.00000000E+00  0.00000000E+00  0.00000000E+00
  0.00000000E+00  0.00000000E+00  0.00000000E+00
  0.00000000E+00  0.00000000E+00  0.00000000E+00
  0.00000000E+00  0.00000000E+00  0.00000000E+00
  0.00000000E+00  0.00000000E+00  0.00000000E+00
  0.00000000E+00  0.00000000E+00  0.00000000E+00
  0.00000000E+00  0.00000000E+00  0.00000000E+00
  0.00000000E+00  0.00000000E+00  0.00000000E+00
  0.00000000E+00  0.00000000E+00  0.00000000E+00
  0.00000000E+00  0.00000000E+00  0.00000000E+00
  0.00000000E+00  0.00000000E+00  0.00000000E+00
  0.00000000E+00  0.00000000E+00  0.00000000E+00
  0.00000000E+00  0.00000000E+00  0.00000000E+00
  0.00000000E+00  0.00000000E+00  0.00000000E+00
  0.00000000E+00  0.00000000E+00  0.00000000E+00
  0.00000000E+00  0.00000000E+00  0.00000000E+00
  0.00000000E+00  0.00000000E+00  0.00000000E+00
  0.00000000E+00  0.00000000E+00  0.00000000E+00
  0.00000000E+00  0.00000000E+00  0.00000000E+00
  0.00000000E+00  0.00000000E+00  0.00000000E+00
  0.00000000E+00  0.00000000E+00  0.00000000E+00
  0.00000000E+00  0.00000000E+00  0.00000000E+00
  0.00000000E+00  0.00000000E+00  0.00000000E+00
  0.00000000E+00  0.00000000E+00  0.00000000E+00
  0.00000000E+00  0.00000000E+00  0.00000000E+00
  0.00000000E+00  0.00000000E+00  0.00000000E+00
  0.00000000E+00  0.00000000E+00  0.00000000E+00
  0.00000000E+00  0.00000000E+00  0.00000000E+00
  0.00000000E+00  0.00000000E+00  0.00000000E+00
  0.00000000E+00  0.00000000E+00  0.00000000E+00
  0.00000000E+00  0.00000000E+00  0.00000000E+00
  0.00000000E+00  0.00000000E+00  0.00000000E+00
  0.00000000E+00  0.00000000E+00  0.00000000E+00
  0.00000000E+00  0.00000000E+00  0.00000000E+00
  0.00000000E+00  0.00000000E+00  0.00000000E+00
  0.00000000E+00  0.00000000E+00  0.00000000E+00
  0.00000000E+00  0.00000000E+00  0.00000000E+00
  0.00000000E+00  0.00000000E+00  0.00000000E+00
  0.00000000E+00  0.00000000E+00  0.00000000E+00
  0.00000000E+00  0.00000000E+00  0.00000000E+00
  0.00000000E+00  0.00000000E+00  0.00000000E+00
  0.00000000E+00  0.00000000E+00  0.00000000E+00
  0.00000000E+00  0.00000000E+00  0.00000000E+00
  0.00000000E+00  0.00000000E+00  0.00000000E+00
  0.00000000E+00  0.00000000E+00  0.00000000E+00
  0.00000000E+00  0.00000000E+00  0.00000000E+00
  0.00000000E+00  0.00000000E+00  0.00000000E+00
  0.00000000E+00  0.00000000E+00  0.00000000E+00
  0.00000000E+00  0.00000000E+00  0.00000000E+00
  0.00000000E+00  0.00000000E+00  0.00000000E+00
  0.00000000E+00  0.00000000E+00  0.00000000E+00
  0.00000000E+00  0.00000000E+00  0.00000000E+00
  0.00000000E+00  0.00000000E+00  0.00000000E+00
  0.00000000E+00  0.00000000E+00  0.00000000E+00
  0.00000000E+00  0.00000000E+00  0.00000000E+00
  0.00000000E+00  0.00000000E+00  0.00000000E+00
  0.00000000E+00  0.00000000E+00  0.00000000E+00
  0.00000000E+00  0.00000000E+00  0.00000000E+00
  0.00000000E+00  0.00000000E+00  0.00000000E+00
  0.00000000E+00  0.00000000E+00  0.00000000E+00
  0.00000000E+00  0.00000000E+00  0.00000000E+00
  0.00000000E+00  0.00000000E+00  0.00000000E+00
  0.00000000E+00  0.00000000E+00  0.00000000E+00
  0.00000000E+00  0.00000000E+00  0.00000000E+00
  0.00000000E+00  0.00000000E+00  0.00000000E+00
  0.00000000E+00  0.00000000E+00  0.00000000E+00
  0.00000000E+00  0.00000000E+00  0.00000000E+00
  0.00000000E+00  0.00000000E+00  0.00000000E+00
  0.00000000E+00  0.00000000E+00  0.00000000E+00
  0.00000000E+00  0.00000000E+00  0.00000000E+00
  0.00000000E+00  0.00000000E+00  0.00000000E+00
  0.00000000E+00  0.00000000E+00  0.00000000E+00
  0.00000000E+00  0.00000000E+00  0.00000000E+00
  0.00000000E+00  0.00000000E+00  0.00000000E+00
  0.00000000E+00  0.00000000E+00  0.00000000E+00
  0.00000000E+00  0.00000000E+00  0.00000000E+00
  0.00000000E+00  0.00000000E+00  0.00000000E+00
  0.00000000E+00  0.00000000E+00  0.00000000E+00
  0.00000000E+00  0.00000000E+00  0.00000000E+00
  0.00000000E+00  0.00000000E+00  0.00000000E+00
  0.00000000E+00  0.00000000E+00  0.00000000E+00
  0.00000000E+00  0.00000000E+00  0.00000000E+00
  0.00000000E+00  0.00000000E+00  0.00000000E+00
  0.00000000E+00  0.00000000E+00  0.00000000E+00
