Type_030 Type_130 
1.0
9.5784099999999999e+00 0.0000000000000000e+00 0.0000000000000000e+00 
0.0000000000000000e+00 1.1256463038200000e+01 0.0000000000000000e+00 
0.0000000000000000e+00 0.0000000000000000e+00 1.7711358899699999e+01 
Type_0 Type_1 
30 30 
Cartesian
   9.3617882515    4.9056072307    1.2684387566
   0.7736211742    4.2700842882    3.3183848654
   0.6456165130    3.8301975202    6.0158657108
   5.5628261742    1.7478033080    1.7761130829
   5.5628261742    1.1641339182    4.8606566479
   2.0389578704    2.1166700262    2.9109074065
   2.0393309853    1.5747455942    5.6527671538
   6.8281628704    5.2226203962    1.3686356240
   6.8281628704    4.6389510064    4.4531791890
   6.8516906493    3.6995405801    6.6332736658
   4.0978017679    5.0786033648    1.2750649053
   3.3042945666    4.2700842882    3.3183848654
   3.4410383765    3.8337916925    6.0139928899
   8.0934995666    1.7478033080    1.7761130829
   8.0934995666    1.1641339182    4.8606566479
   0.0996122030   11.1815304418    1.4127989557
   0.7864543910   10.2269869202    3.5845633960
   0.6671115522    9.4185051802    6.0380162306
   5.6416146735    7.3173828842    2.0364574613
   5.5628261742    6.7923654373    4.8606566479
   3.4728349560    6.8786088847    2.8881808314
   2.0238408133    7.1876020171    5.6553346048
   6.8223801699   10.9172276215    1.6322351664
   6.8281628704   10.2671825255    4.4531791890
   6.8625836759    9.3951075790    6.6671829060
   4.0679639976   10.8281512860    1.3236994946
   3.3042945666    9.8983158073    3.3183848654
   3.4360949585    9.4595840770    6.0299954784
   8.1089611950    7.2512560326    2.1933759980
   8.0934995666    6.7923654373    4.8606566479
   3.7187852105    2.9640058869    1.7622051399
   3.6501901085    2.3322387789    4.6268153475
   2.0452142140    2.9165552636    7.2014779871
   8.4393951085    5.4381891489    3.0845435650
   8.3666928243    4.8965904205    5.9054092864
   8.1544755134    0.4102069555    0.2072449341
   2.0389578704    5.0743156402    5.1456818273
   2.0389578704    0.0297536797    2.0611382800
   6.8399801944    3.1748480153    0.8970039885
   6.8281628704    2.5520346599    3.6034100625
   6.8280089356    1.7089748569    6.3941269619
   0.3682181261    2.9097434485    1.7741287696
   0.4277256322    2.3322387789    4.6268153475
   5.2169306322    5.4381891489    3.0845435650
   5.3135222821    4.8849936770    5.9311360256
   5.4917280930    0.4350690865    0.2078623760
   4.0050261824    8.6916885481    1.7760165917
   3.6501901085    7.9604702980    4.6268153475
   2.0723429481    8.5018856090    7.2158156831
   8.4393951085   11.0664206680    3.0845435650
   8.4095540017   10.5087821485    5.8709775988
   8.2688431827    6.3443949996    0.3681165208
   2.0389578704   10.7025471593    5.1456818273
   2.0389578704    5.6579851988    2.0611382800
   6.8281628704    8.1802661790    3.6034100625
   6.8338900913    7.4074904977    6.3796866859
   0.4277256322    7.9604702980    4.6268153475
   5.2169306322   11.0664206680    3.0845435650
   5.3010491896   10.5190920661    5.9149508562
   5.4006412047    6.2650838094    0.2721742666
