Type_036 Type_136 
1.0
1.1452783670500001e+01 0.0000000000000000e+00 0.0000000000000000e+00 
-4.0053990701000002e+00 8.7007307979000004e+00 0.0000000000000000e+00 
0.0000000000000000e+00 0.0000000000000000e+00 2.0500762856000001e+01 
Type_0 Type_1 
36 36 
Cartesian
   6.3498294782    0.6471180538    7.1632766569
   8.0708222517    1.4393805677    4.6601620083
   9.7828273465    2.2015886888    2.4534256675
   0.7333568516    8.6406169971    9.2903127320
  -2.8082971717    6.9757802645    5.4945335647
  -1.0873044057    7.7680427697    2.9914189160
   0.4605034527    8.4200573979    1.2605663327
   4.8154338282    6.6644085129    9.2835920254
   6.9234937368    6.1835177507    7.9976482133
   0.3216943725    3.0185761330    8.4681170346
   1.7707661570    3.8114491635    6.3289051210
   3.4917589230    4.6037116687    3.8257904724
   5.2209728261    5.3922269084    1.6134797440
   2.5123357812    0.2734965619    8.3437154819
   4.2333285432    1.0657590758    5.8406008332
   5.9543213206    1.8580215810    3.3374862050
   7.6479911910    2.6372363691    1.2599539696
  -3.2038053408    8.1866837917    1.6687430923
   3.0362220978    5.7537833287    7.8354725872
   4.8069928017    6.6021587726    6.6749723896
   6.5279855677    7.3944212778    4.1718577409
  -0.3457347741    4.2300901768    5.0062292973
   1.3752579879    5.0223526907    2.5031146487
   3.0630922076    5.7662658870    0.4605336369
   9.3860561304    3.4378276716    7.5093439460
   3.7098380210    2.1906283595    9.2884366553
   5.2915790115    2.9459033350    7.1632766569
   7.0125717849    3.7381658488    4.6601620083
   8.6950821052    4.5377608085    2.4568458983
   0.1388514317    0.5738347478    5.4945335647
   1.8598441977    1.3660972530    2.9914189160
   5.8652432701    8.4823030318    7.9976482133
  -0.8339078830    5.5235790832    8.4682391153
   0.7125156903    6.1102344447    6.3289051210
   2.4335084562    6.9024969499    3.8257904724
   4.1136606522    7.6955268187    1.6111422476
   1.6889273386    1.7878757827    9.4947141855
   3.1253583171    2.3294667204    7.3517128013
   4.8463510791    3.1217292343    4.8485981527
   6.5673438451    3.9139917394    2.3454835040
  -0.3063764967    0.7496606384    3.1798550604
   1.3984010561    1.3002386711    1.0443674135
   3.7330266491    7.8911528390    7.9848824256
   5.4200153376    8.6581289311    5.6829697091
  -1.4537050116    5.4937978214    6.5173412450
   0.2672877504    6.2860603353    4.0142265963
   1.9882805278    7.0783228405    1.5111119476
   8.5767864384    4.9784841356    8.6287492221
  -0.6723272957    4.0788247460    2.0961516758
   5.6815338309    1.7329590160    8.8222853833
   7.5414238994    2.5886474827    6.5328438808
   9.2624166654    3.3809099879    4.0297292322
   2.3886963236    0.2165788868    4.8641007681
   4.0023652503    0.9892901523    2.7785233043
  -3.3376955085    8.1250471709    7.3672154167
   6.6418343997    7.4418370953    9.5984044970
   1.2413678087    4.9607160698    8.2015869731
   2.9623605707    5.7529785837    5.6984723244
   4.6833533367    6.5452410889    3.1953576758
   6.1786987265    7.2575176427    1.2281060440
   6.1938874882    0.1945423719    4.8485981527
   7.9148802542    0.9868048771    2.3454835040
  -0.8832506350    7.3623188858    9.4942782116
   0.4674956561    8.1030106559    7.3517128013
  -2.9642391577    6.5232045740    3.1798550604
  -1.3557491547    7.5670861856    0.9685143257
   5.0465589848    4.9386795549    8.1860843577
   6.7675517468    5.7309420688    5.6829697091
  -0.1061686024    2.5666109591    6.5173412450
   1.6148241596    3.3588734730    4.0142265963
   3.2982701711    4.3153438709    1.8055168445
  10.0319857436    1.8254932956    8.6331522542
