Type_026 Type_126                       
   1.00000000000000     
    11.2564630381999997    0.0000000000000000    0.0000000000000000
     0.0000000000000000    9.5784099999999999    0.0000000000000000
     0.0000000000000000    0.0000000000000000   17.1924924047000012
   Ty   Ty
    26    26
Direct
  0.4393349899979597  0.4638879969953251  0.1628337709973167
  0.4793814479368521  0.4735719537271876  0.3204906158861363
  0.1583035698294211  0.9744757382697102  0.0986598502341778
  0.2179367664225254  0.9719732638611234  0.2414948541995585
  0.4393349899979597  0.1996819970015906  0.1628337709973167
  0.4795129520420929  0.1902149434718297  0.3205512627356697
  0.1582190373526799  0.6888999118120864  0.0987162657251517
  0.2178820104749519  0.6917214870422157  0.2415046086491159
  0.1306397029963620  0.3317849969984579  0.1391328760015114
  0.1807242564201843  0.3318080704939561  0.2982973439382164
  0.4540624904070469  0.8317870749633798  0.0948473607616194
  0.4065656619996147  0.8317849969984579  0.2288389949978651
  0.2927127199297317  0.8318902709635552  0.3531380986121704
  0.9393349899979597  0.4638879969953251  0.1628337709973167
  0.9793814479368521  0.4735719537271876  0.3204906158861363
  0.6583035698294211  0.9744757382697102  0.0986598502341778
  0.7179367664225254  0.9719732638611234  0.2414948541995585
  0.9393349899979597  0.1996819970015906  0.1628337709973167
  0.9795129520420929  0.1902149434718297  0.3205512627356697
  0.6582190373526799  0.6888999118120864  0.0987162657251517
  0.7178820104749519  0.6917214870422157  0.2415046086491159
  0.6306397029963620  0.3317849969984579  0.1391328760015114
  0.6807242564201843  0.3318080704939561  0.2982973439382164
  0.9540624904070469  0.8317870749633798  0.0948473607616194
  0.9065656619996147  0.8317849969984579  0.2288389949978651
  0.7927127199297317  0.8318902709635552  0.3531380986121704
  0.0668174721977550  0.1600303911191929  0.0790731021657081
  0.1114890379989788  0.1635699970036768  0.2389385289986805
  0.0648638361821270  0.3320122930945715  0.3900420766314738
  0.3355630629960302  0.6635699970036768  0.1492324090018826
  0.3760412088713139  0.6622791260553669  0.3101380600198667
  0.0667348274365338  0.5033941379101563  0.0790094457525328
  0.1114890379989788  0.4999999970036768  0.2389385289986805
  0.3355630629960302  0.9999999970036768  0.1492324090018826
  0.3762751416254204  0.0014963382440314  0.3100668745703601
  0.3141628363011506  0.3317678919674591  0.1127672272444897
  0.3678888029967027  0.3317849969984579  0.2691183590015811
  0.0937627112991208  0.8316688864435733  0.0198759209634218
  0.0919628440023317  0.8317849969984579  0.1794122389989710
  0.5668174721977550  0.1600303911191929  0.0790731021657081
  0.6114890379989788  0.1635699970036768  0.2389385289986805
  0.5648638361821270  0.3320122930945715  0.3900420766314738
  0.8355630629960302  0.6635699970036768  0.1492324090018826
  0.8760412088713139  0.6622791260553669  0.3101380600198667
  0.5667348274365338  0.5033941379101563  0.0790094457525328
  0.6114890379989788  0.4999999970036768  0.2389385289986805
  0.8355630629960302  0.9999999970036768  0.1492324090018826
  0.8762751416254204  0.0014963382440314  0.3100668745703601
  0.8141628363011506  0.3317678919674591  0.1127672272444897
  0.8678888029967027  0.3317849969984579  0.2691183590015811
  0.5937627112991208  0.8316688864435733  0.0198759209634218
  0.5919628440023317  0.8317849969984579  0.1794122389989710
 
  0.00000000E+00  0.00000000E+00  0.00000000E+00
  0.00000000E+00  0.00000000E+00  0.00000000E+00
  0.00000000E+00  0.00000000E+00  0.00000000E+00
  0.00000000E+00  0.00000000E+00  0.00000000E+00
  0.00000000E+00  0.00000000E+00  0.00000000E+00
  0.00000000E+00  0.00000000E+00  0.00000000E+00
  0.00000000E+00  0.00000000E+00  0.00000000E+00
  0.00000000E+00  0.00000000E+00  0.00000000E+00
  0.00000000E+00  0.00000000E+00  0.00000000E+00
  0.00000000E+00  0.00000000E+00  0.00000000E+00
  0.00000000E+00  0.00000000E+00  0.00000000E+00
  0.00000000E+00  0.00000000E+00  0.00000000E+00
  0.00000000E+00  0.00000000E+00  0.00000000E+00
  0.00000000E+00  0.00000000E+00  0.00000000E+00
  0.00000000E+00  0.00000000E+00  0.00000000E+00
  0.00000000E+00  0.00000000E+00  0.00000000E+00
  0.00000000E+00  0.00000000E+00  0.00000000E+00
  0.00000000E+00  0.00000000E+00  0.00000000E+00
  0.00000000E+00  0.00000000E+00  0.00000000E+00
  0.00000000E+00  0.00000000E+00  0.00000000E+00
  0.00000000E+00  0.00000000E+00  0.00000000E+00
  0.00000000E+00  0.00000000E+00  0.00000000E+00
  0.00000000E+00  0.00000000E+00  0.00000000E+00
  0.00000000E+00  0.00000000E+00  0.00000000E+00
  0.00000000E+00  0.00000000E+00  0.00000000E+00
  0.00000000E+00  0.00000000E+00  0.00000000E+00
  0.00000000E+00  0.00000000E+00  0.00000000E+00
  0.00000000E+00  0.00000000E+00  0.00000000E+00
  0.00000000E+00  0.00000000E+00  0.00000000E+00
  0.00000000E+00  0.00000000E+00  0.00000000E+00
  0.00000000E+00  0.00000000E+00  0.00000000E+00
  0.00000000E+00  0.00000000E+00  0.00000000E+00
  0.00000000E+00  0.00000000E+00  0.00000000E+00
  0.00000000E+00  0.00000000E+00  0.00000000E+00
  0.00000000E+00  0.00000000E+00  0.00000000E+00
  0.00000000E+00  0.00000000E+00  0.00000000E+00
  0.00000000E+00  0.00000000E+00  0.00000000E+00
  0.00000000E+00  0.00000000E+00  0.00000000E+00
  0.00000000E+00  0.00000000E+00  0.00000000E+00
  0.00000000E+00  0.00000000E+00  0.00000000E+00
  0.00000000E+00  0.00000000E+00  0.00000000E+00
  0.00000000E+00  0.00000000E+00  0.00000000E+00
  0.00000000E+00  0.00000000E+00  0.00000000E+00
  0.00000000E+00  0.00000000E+00  0.00000000E+00
  0.00000000E+00  0.00000000E+00  0.00000000E+00
  0.00000000E+00  0.00000000E+00  0.00000000E+00
  0.00000000E+00  0.00000000E+00  0.00000000E+00
  0.00000000E+00  0.00000000E+00  0.00000000E+00
  0.00000000E+00  0.00000000E+00  0.00000000E+00
  0.00000000E+00  0.00000000E+00  0.00000000E+00
  0.00000000E+00  0.00000000E+00  0.00000000E+00
  0.00000000E+00  0.00000000E+00  0.00000000E+00
