Structure 42 made from 012-1.xsd file
1.0
        9.5784100000        0.0000000000        0.0000000000
        0.0000000000       11.2564630382        0.0000000000
        0.0000000000        0.0000000000       17.7113588997
   Ni    S
   30   30
Direct
     0.080767181     0.431197051     0.013202900
     0.080767181     0.379345117     0.187359134
     0.080767181     0.327493183     0.361515368
     0.580767181     0.155271092     0.100281017
     0.580767181     0.103419157     0.274437251
     0.212870181     0.188040419     0.164352573
     0.212870181     0.136188485     0.338508807
     0.712870181     0.463966379     0.077274456
     0.712870181     0.412114444     0.251430690
     0.712870181     0.360262510     0.425586924
     0.344973181     0.431197051     0.013202900
     0.344973181     0.379345117     0.187359134
     0.344973181     0.327493183     0.361515368
     0.844973181     0.155271092     0.100281017
     0.844973181     0.103419157     0.274437251
     0.080767181     0.931197051     0.013202900
     0.080767181     0.879345117     0.187359134
     0.080767181     0.827493183     0.361515368
     0.580767181     0.655271092     0.100281017
     0.580767181     0.603419157     0.274437251
     0.212870181     0.688040419     0.164352573
     0.212870181     0.636188485     0.338508807
     0.712870181     0.963966379     0.077274456
     0.712870181     0.912114444     0.251430690
     0.712870181     0.860262510     0.425586924
     0.344973181     0.931197051     0.013202900
     0.344973181     0.879345117     0.187359134
     0.344973181     0.827493183     0.361515368
     0.844973181     0.655271092     0.100281017
     0.844973181     0.603419157     0.274437251
     0.381085181     0.259043018     0.087078117
     0.381085181     0.207191084     0.261234351
     0.381085181     0.155339150     0.435390584
     0.881085181     0.483117044     0.174156234
     0.881085181     0.431265110     0.348312467
     0.881085181     0.034968993     0.000000000
     0.212870181     0.450791303     0.290530041
     0.212870181     0.002643253     0.116373808
     0.712870181     0.278569212     0.029295691
     0.712870181     0.226717278     0.203451925
     0.044655181     0.259043018     0.087078117
     0.044655181     0.207191084     0.261234351
     0.044655181     0.155339150     0.435390584
     0.544655181     0.483117044     0.174156234
     0.544655181     0.431265110     0.348312467
     0.381085181     0.759043018     0.087078117
     0.381085181     0.707191084     0.261234351
     0.381085181     0.655339150     0.435390584
     0.881085181     0.983117044     0.174156234
     0.881085181     0.534968993     0.000000000
     0.212870181     0.950791303     0.290530041
     0.212870181     0.502643253     0.116373808
     0.712870181     0.778569212     0.029295691
     0.712870181     0.726717278     0.203451925
     0.712870181     0.674865344     0.377608158
     0.044655181     0.759043018     0.087078117
     0.044655181     0.707191084     0.261234351
     0.544655181     0.983117044     0.174156234
     0.544655181     0.931265110     0.348312467
     0.544655181     0.534968993     0.000000000
