Type_036 Type_136                       
   1.00000000000000     
    10.0797329848999997    0.0000000000000000    0.0000000000000000
     3.5732980426999998    9.4251025535000004    0.0000000000000000
     0.0000000000000000    0.0000000000000000   20.6835035552000015
   Ty   Ty
    36    36
Direct
  0.1688565078462005  0.9660156824308430  0.0884009199224991
  0.3970588919990305  0.7949517889985884  0.1269370240004619
  0.5473274039977767  0.6446832770051500  0.2538740490017162
  0.6975959169987007  0.4944147640037642  0.3808110730021710
  0.8267015767621047  0.3445281962575706  0.4848108644523634
  0.1138150629981425  0.4115289509990134  0.1692493660011465
  0.2640835749968886  0.2612604390055751  0.2961863900016013
  0.4143520880014009  0.1109919270015283  0.4231234140020632
  0.0980899602233123  0.7833122908310841  0.4513959945462318
  0.5463614500726095  0.2223148631970986  0.1492220839599483
  0.8305712340008427  0.0281061139967775  0.2115617070010316
  0.9808397459995888  0.8778376020033392  0.3384987320022859
  0.3689602620854728  0.5480279200444258  0.1127417376063349
  0.5076255620029286  0.4201791189984831  0.2203365250010663
  0.6578940739917485  0.2699106070050448  0.3472735500023276
  0.7888044558980170  0.1226668329959608  0.4583276659633739
  0.0741132200011165  0.1870247940002940  0.1357118420004966
  0.2243817329957096  0.0367562819962473  0.2626488670017508
  0.3746502450007796  0.8864877690054698  0.3895858910022127
  0.4338467660819703  0.7228700401323422  0.4734474782507547
  0.0661923422138457  0.3696861610069249  0.0553632951856500
  0.0837402458989658  0.5092977950905677  0.4184951890717699
  0.7908693909901316  0.8036019570086665  0.1780241840011811
  0.9411379029989675  0.6533334440072807  0.3049612080016431
  0.0246952001015188  0.1654545154652922  0.4256840553730257
  0.5934346191444533  0.5915072475821219  0.0818313146408158
  0.7321297189962763  0.4598809620050659  0.1867990020012158
  0.8823982319972004  0.3096124490036800  0.3137360260016777
  0.2986173780002304  0.2267266369962684  0.1021743190006461
  0.4488858899953811  0.0764581240054909  0.2291113430011080
  0.5991544019978861  0.9261896120014441  0.3560483680023623
  0.7339401113669126  0.8172935175054903  0.4518800432797221
  0.0153735480034882  0.8433037990073018  0.1444866600005312
  0.1656420609980884  0.6930352870032550  0.2714236850017926
  0.3159105729969980  0.5427667740018691  0.3983607090022474
  0.7394665255483588  0.0237227855857114  0.0949615644447306
  0.0008752288299405  0.9983960136439691  0.4807755708679267
  0.5857992939907959  0.4059993870070926  0.1172465670009899
  0.7360678059933008  0.2557308750030458  0.2441835920022513
  0.8863363179958057  0.1054623629989990  0.3711206159978744
  0.1651689726579164  0.1546434058437640  0.0433722687312539
  0.3025554640014079  0.0225765500048567  0.1595589090016745
  0.4528239770023319  0.8723080370034708  0.2864959330021364
  0.6030924889949176  0.7220395249994240  0.4134329569977595
  0.0193116350005198  0.6391537120052817  0.2018712500015667
  0.1695801479951129  0.4888852000012349  0.3288082740020215
  0.2916688936985139  0.3511660708743065  0.4301198436356515
  0.8629291181917225  0.8146121421298318  0.0862165676835573
  0.4549906764073981  0.7540634371093162  0.0343242465767588
  0.6363541289969774  0.6918745520045775  0.1599519899987243
  0.7866226419979014  0.5416060390031916  0.2868890149999856
  0.9368911540004063  0.3913375269991448  0.4138260390004405
  0.2202953076488470  0.4466868731350431  0.0858551040862494
  0.3531102999960822  0.3084517140050025  0.2022643319994160
  0.5033788119985942  0.1581832020009557  0.3292013559998708
  0.6326679473512016  0.0306115287300344  0.4421304923314580
  0.0698664709987895  0.9250288770027666  0.2445766729993011
  0.2201349829976991  0.7747603640013807  0.3715136980005553
  0.2829794181239578  0.6361581527273117  0.4882475001514450
  0.9195979579980289  0.0752973889962050  0.1176396489988392
  0.2105132230848099  0.7528535873771460  0.0930194113615883
  0.3504789649941600  0.6413197160019664  0.2026574130012975
  0.5007474769966649  0.4910512039979125  0.3295944379977200
  0.6512731512488514  0.3401658000961945  0.4411903292131498
  0.0672351359968673  0.2578968789997234  0.2449697550019820
  0.2175036479957768  0.1076283659983446  0.3719067789976052
  0.4017699410451598  0.9405350227842462  0.4812537791547129
  0.9235089823130664  0.3988027739076614  0.1309758245342749
  0.5149538854157925  0.1293600572491655  0.0664524338844146
  0.6393996766393144  0.0081847091383977  0.1806626678322374
  0.7839913059939647  0.8744740410001555  0.2872820960018672
  0.9342598189947182  0.7242055290067171  0.4142191209982897
 
  0.00000000E+00  0.00000000E+00  0.00000000E+00
  0.00000000E+00  0.00000000E+00  0.00000000E+00
  0.00000000E+00  0.00000000E+00  0.00000000E+00
  0.00000000E+00  0.00000000E+00  0.00000000E+00
  0.00000000E+00  0.00000000E+00  0.00000000E+00
  0.00000000E+00  0.00000000E+00  0.00000000E+00
  0.00000000E+00  0.00000000E+00  0.00000000E+00
  0.00000000E+00  0.00000000E+00  0.00000000E+00
  0.00000000E+00  0.00000000E+00  0.00000000E+00
  0.00000000E+00  0.00000000E+00  0.00000000E+00
  0.00000000E+00  0.00000000E+00  0.00000000E+00
  0.00000000E+00  0.00000000E+00  0.00000000E+00
  0.00000000E+00  0.00000000E+00  0.00000000E+00
  0.00000000E+00  0.00000000E+00  0.00000000E+00
  0.00000000E+00  0.00000000E+00  0.00000000E+00
  0.00000000E+00  0.00000000E+00  0.00000000E+00
  0.00000000E+00  0.00000000E+00  0.00000000E+00
  0.00000000E+00  0.00000000E+00  0.00000000E+00
  0.00000000E+00  0.00000000E+00  0.00000000E+00
  0.00000000E+00  0.00000000E+00  0.00000000E+00
  0.00000000E+00  0.00000000E+00  0.00000000E+00
  0.00000000E+00  0.00000000E+00  0.00000000E+00
  0.00000000E+00  0.00000000E+00  0.00000000E+00
  0.00000000E+00  0.00000000E+00  0.00000000E+00
  0.00000000E+00  0.00000000E+00  0.00000000E+00
  0.00000000E+00  0.00000000E+00  0.00000000E+00
  0.00000000E+00  0.00000000E+00  0.00000000E+00
  0.00000000E+00  0.00000000E+00  0.00000000E+00
  0.00000000E+00  0.00000000E+00  0.00000000E+00
  0.00000000E+00  0.00000000E+00  0.00000000E+00
  0.00000000E+00  0.00000000E+00  0.00000000E+00
  0.00000000E+00  0.00000000E+00  0.00000000E+00
  0.00000000E+00  0.00000000E+00  0.00000000E+00
  0.00000000E+00  0.00000000E+00  0.00000000E+00
  0.00000000E+00  0.00000000E+00  0.00000000E+00
  0.00000000E+00  0.00000000E+00  0.00000000E+00
  0.00000000E+00  0.00000000E+00  0.00000000E+00
  0.00000000E+00  0.00000000E+00  0.00000000E+00
  0.00000000E+00  0.00000000E+00  0.00000000E+00
  0.00000000E+00  0.00000000E+00  0.00000000E+00
  0.00000000E+00  0.00000000E+00  0.00000000E+00
  0.00000000E+00  0.00000000E+00  0.00000000E+00
  0.00000000E+00  0.00000000E+00  0.00000000E+00
  0.00000000E+00  0.00000000E+00  0.00000000E+00
  0.00000000E+00  0.00000000E+00  0.00000000E+00
  0.00000000E+00  0.00000000E+00  0.00000000E+00
  0.00000000E+00  0.00000000E+00  0.00000000E+00
  0.00000000E+00  0.00000000E+00  0.00000000E+00
  0.00000000E+00  0.00000000E+00  0.00000000E+00
  0.00000000E+00  0.00000000E+00  0.00000000E+00
  0.00000000E+00  0.00000000E+00  0.00000000E+00
  0.00000000E+00  0.00000000E+00  0.00000000E+00
  0.00000000E+00  0.00000000E+00  0.00000000E+00
  0.00000000E+00  0.00000000E+00  0.00000000E+00
  0.00000000E+00  0.00000000E+00  0.00000000E+00
  0.00000000E+00  0.00000000E+00  0.00000000E+00
  0.00000000E+00  0.00000000E+00  0.00000000E+00
  0.00000000E+00  0.00000000E+00  0.00000000E+00
  0.00000000E+00  0.00000000E+00  0.00000000E+00
  0.00000000E+00  0.00000000E+00  0.00000000E+00
  0.00000000E+00  0.00000000E+00  0.00000000E+00
  0.00000000E+00  0.00000000E+00  0.00000000E+00
  0.00000000E+00  0.00000000E+00  0.00000000E+00
  0.00000000E+00  0.00000000E+00  0.00000000E+00
  0.00000000E+00  0.00000000E+00  0.00000000E+00
  0.00000000E+00  0.00000000E+00  0.00000000E+00
  0.00000000E+00  0.00000000E+00  0.00000000E+00
  0.00000000E+00  0.00000000E+00  0.00000000E+00
  0.00000000E+00  0.00000000E+00  0.00000000E+00
  0.00000000E+00  0.00000000E+00  0.00000000E+00
  0.00000000E+00  0.00000000E+00  0.00000000E+00
  0.00000000E+00  0.00000000E+00  0.00000000E+00
