Type_036 Type_136 
1.0
1.6884694054200001e+01 0.0000000000000000e+00 0.0000000000000000e+00 
0.0000000000000000e+00 9.5784099999999999e+00 0.0000000000000000e+00 
0.0000000000000000e+00 0.0000000000000000e+00 1.6169087119699999e+01 
Type_0 Type_1 
36 36 
Cartesian
  13.1708432080    1.3917138259    1.5708038051
  13.4873254289    1.3886355943    4.2322635403
   3.6657104505    6.1430041616    1.1764580638
   5.0203308784    6.1809188259    3.1130755905
   6.4950834458    1.1170438880    1.6390870849
   7.9619168895    1.4125902050    3.4810050816
  16.0822371162    6.1809188259    2.0848944002
  16.4458721681    6.1807587801    4.7985483327
   2.1089369702    1.3917138259    2.5989849954
   1.9941279820    1.3942715529    5.0203681229
   9.4138552258    5.7947652059    2.2059691361
  10.8431186779    6.1809188259    4.1412567808
  15.3690795941    0.0421067418    1.5181935011
  15.9325899865    0.1218920574    4.0097389402
   7.1737451382    4.9155821297    2.7055981349
   8.5582117080    4.1132518698    4.4531208347
   8.9257088353    1.3687689325    1.0346259475
  10.1342847911    0.0896541693    2.9564747000
   1.3509573218    4.9155821297    1.6774169447
   1.8855225165    4.8553228353    4.4344556481
   4.2623512300    0.1263771297    2.1915075398
   4.8491801370    9.5165156056    4.7495432604
  12.9778941868    4.0659609666    1.5216287873
  12.9965329377    4.9155821297    3.7337793091
  15.3769630452    2.7421298830    1.5232917410
  15.9334374099    2.6603950060    4.0121521243
   7.1737451382    7.4462555221    2.7055981349
   6.7259466019    5.9998006788    4.9408093958
  10.1968173971    3.4530617530    1.0540724173
  10.0851390464    2.6570505221    3.2196887301
   1.3509573218    7.4462555221    1.6774169447
   1.8850564317    7.5050311985    4.4350140653
   4.2623512300    2.6570505221    2.1915075398
   4.8046581933    2.7297062103    4.8424896040
  13.0119970599    8.2407372728    1.5482432453
  12.9965329377    7.4462555221    3.7337793091
  16.8659820184    1.3899835531    5.3524793905
  16.7405190961    1.3917138259    2.5704529595
   7.7086727500    6.2031207782    1.1651367458
   8.5900067496    6.1809188259    4.1127247450
  10.9177312798    1.3917138259    1.5422717854
  11.4324002892    1.2300357279    4.1563039301
   1.9145292395    6.1813551345    0.1577657864
   2.7672189501    6.1809188259    3.0845435547
   1.2960203434    6.1799295432    5.8811492237
   4.7504019657    1.3931104862    0.6445322926
   5.6786128414    1.3917138259    3.5986341498
  13.8291251880    6.1809188259    2.0563623806
  14.3476735957    6.1784088906    4.7407234490
  13.8116484023    2.7987386380    0.1828810714
  13.9984422322    3.0029460640    3.0893194665
   5.0748838379    7.7159235783    1.6822877513
   5.8462220548    7.7455015022    4.3488233167
   8.1756544158    3.0029460640    2.0611382762
   9.0513595961    2.2195005416    5.0085241237
   0.0251420861    7.7921510640    3.6034100616
  16.3410109382    7.8655417306    0.9046504722
   2.3674989907    3.0889375560    1.4065181542
   2.9365359774    3.0029460640    4.1175006406
  11.0870483240    7.7921510640    2.5752288713
  11.7496418142    7.5552167389    5.3095276905
   5.0987083751    4.6105721019    1.7624734768
   6.4325806726    4.0157820522    4.5626387546
  13.7820885603    9.5323919258    0.2038064253
  13.9984422322    9.3588915877    3.0893194665
   0.0251420861    4.5696865877    3.6034100616
  16.3423832980    4.4982332341    0.9027375762
   8.1756544158    9.3588915877    2.0611382762
  11.0870483240    4.5696865877    2.5752288713
  11.7127143341    4.7567052712    5.2952084746
   2.3614584558    9.2760700298    1.4062298274
   2.9365359774    9.3588915877    4.1175006406
