Type_036 Type_136                       
   1.00000000000000     
    10.0797329848999997    0.0000000000000000    0.0000000000000000
     3.5732980426999998    9.4251025535000004    0.0000000000000000
     0.0000000000000000    0.0000000000000000   20.4938792702999990
   Ty   Ty
    36    36
Direct
  0.3743321370011472  0.7513622100027177  0.0947910939982606
  0.5246006490036521  0.6010936979986710  0.2229026319980463
  0.6748691619946570  0.4508251849972851  0.3510141699978249
  0.7140835616346521  0.3708277365005515  0.4586400089572891
  0.5554965204512854  0.1705904974692203  0.0723220973370289
  0.7577549739993117  0.0346060389951788  0.1374949399981844
  0.0582919989989819  0.7340690140003545  0.3937180159977558
  0.9080234870000723  0.8843375270017404  0.2656064779979701
  0.1411778119957319  0.3178498679982553  0.1801987859981153
  0.2914463239944780  0.1675813560048169  0.3083103239979010
  0.3946354750575551  0.0452538735975452  0.4222911250454189
  0.9884427198682175  0.4716626069866123  0.0791225001090936
  0.0017136786612610  0.1266516305285919  0.3959547886992709
  0.5750945327935924  0.5579501456190741  0.0484331532360756
  0.7094029640021517  0.4162913829985868  0.1552069580018269
  0.8596714769931495  0.2660228699972009  0.2833184960016126
  0.0928258019985648  0.6995352120016562  0.1979108040017579
  0.2430943139974815  0.5492666990002775  0.3260223420015365
  0.3722399593437657  0.4159199814695143  0.4358645219182691
  0.0232135187361564  0.7190974058402304  0.0886252063772091
  0.3259801270041507  0.1330475529981712  0.1125031120019031
  0.4762486389929705  0.9827790410047328  0.2406146500016817
  0.6265171509954826  0.8325105290006860  0.3687261880014674
  0.7169004956962226  0.6956598387637882  0.4631308223843718
  0.0460440105231328  0.3609754295497396  0.4283671169431784
  0.6145634190552158  0.7874279252424685  0.0804097131765644
  0.7491048069954118  0.6407955400079146  0.1890547949999331
  0.8993733189979238  0.4905270280038678  0.3171663329997187
  0.0797685270286479  0.0875083626430921  0.1464759440322396
  0.1325276440035026  0.9240393690003756  0.2317586409998640
  0.2827961569943369  0.7737708570069373  0.3598701789996497
  0.4477103199443206  0.6572132992865676  0.4661111510422273
  0.2837688690908351  0.5353789069304256  0.0561155126187671
  0.3656819689989987  0.3575517110048381  0.1463509490000092
  0.5159504819999228  0.2072831980034522  0.2744624869997878
  0.6561513695708925  0.0685806962980990  0.3894165996218035
  0.0638215629996921  0.2620847839987377  0.3412340489989418
  0.1764459090664872  0.1476525125324173  0.4472106754957892
  0.7632845379926678  0.5626218080068313  0.0850109729993775
  0.9135530509971872  0.4123532960027845  0.2131225109991632
  0.1467073760025954  0.8458656380072469  0.1277148189993085
  0.2969758880015121  0.6955971250058610  0.2558263569990871
  0.4472444009961052  0.5453286130018142  0.3839378949988728
  0.5183633705164894  0.4486519267028797  0.5006989724669069
  0.3524039488493784  0.3010086688602129  0.0503635239130062
  0.5301302130007670  0.1291094669997079  0.1704186649992323
  0.6803987259979323  0.9788409540089376  0.2985302029990180
  0.7781764318689284  0.8609457684348172  0.4277590782192462
  0.4053423241529188  0.9354915143417486  0.0634733821031688
  0.5279642099980464  0.7979421370017050  0.1712121030001867
  0.6782327220005513  0.6476736249976582  0.2993236409999724
  0.8285012349977166  0.4974051120068808  0.4274351789997510
  0.7218002943736792  0.2361975406488597  0.1015126483064108
  0.9113870469924521  0.0811859660047816  0.2139159490001177
  0.0616555599969715  0.9309174540007277  0.3420274869998963
  0.2243279628140229  0.7423616787598490  0.4520049134291781
  0.1445413720016262  0.5146983079986285  0.1285082570002629
  0.2948098850025502  0.3644297949972426  0.2566197950000415
  0.4450783970012964  0.2141612830038042  0.3847313329998272
  0.0786183646389347  0.5775546151674007  0.0132964744793327
  0.3802532886144974  0.6535411917308664  0.0066059337382853
  0.4774093739934457  0.5120669730015592  0.1281115379997857
  0.6276778869943698  0.3617984600001733  0.2562230759995643
  0.7779463989968818  0.2115299479961266  0.3843346139993500
  0.0111007239987018  0.6450422890032499  0.2989269219994952
  0.1535410041268648  0.5081426177078043  0.4131810507038267
  0.6806963360811835  0.9576185658211571  0.0595078665154105
  0.8608322119997851  0.7953108020046358  0.1708153839997095
  0.1029686358634407  0.2465625017137896  0.0898531210666675
  0.2442550489979567  0.0785546309970968  0.2135192299996405
  0.3945235609967028  0.9282861190036584  0.3416307679994190
  0.5120004668806786  0.8353920051804806  0.4593228472874742
 
  0.00000000E+00  0.00000000E+00  0.00000000E+00
  0.00000000E+00  0.00000000E+00  0.00000000E+00
  0.00000000E+00  0.00000000E+00  0.00000000E+00
  0.00000000E+00  0.00000000E+00  0.00000000E+00
  0.00000000E+00  0.00000000E+00  0.00000000E+00
  0.00000000E+00  0.00000000E+00  0.00000000E+00
  0.00000000E+00  0.00000000E+00  0.00000000E+00
  0.00000000E+00  0.00000000E+00  0.00000000E+00
  0.00000000E+00  0.00000000E+00  0.00000000E+00
  0.00000000E+00  0.00000000E+00  0.00000000E+00
  0.00000000E+00  0.00000000E+00  0.00000000E+00
  0.00000000E+00  0.00000000E+00  0.00000000E+00
  0.00000000E+00  0.00000000E+00  0.00000000E+00
  0.00000000E+00  0.00000000E+00  0.00000000E+00
  0.00000000E+00  0.00000000E+00  0.00000000E+00
  0.00000000E+00  0.00000000E+00  0.00000000E+00
  0.00000000E+00  0.00000000E+00  0.00000000E+00
  0.00000000E+00  0.00000000E+00  0.00000000E+00
  0.00000000E+00  0.00000000E+00  0.00000000E+00
  0.00000000E+00  0.00000000E+00  0.00000000E+00
  0.00000000E+00  0.00000000E+00  0.00000000E+00
  0.00000000E+00  0.00000000E+00  0.00000000E+00
  0.00000000E+00  0.00000000E+00  0.00000000E+00
  0.00000000E+00  0.00000000E+00  0.00000000E+00
  0.00000000E+00  0.00000000E+00  0.00000000E+00
  0.00000000E+00  0.00000000E+00  0.00000000E+00
  0.00000000E+00  0.00000000E+00  0.00000000E+00
  0.00000000E+00  0.00000000E+00  0.00000000E+00
  0.00000000E+00  0.00000000E+00  0.00000000E+00
  0.00000000E+00  0.00000000E+00  0.00000000E+00
  0.00000000E+00  0.00000000E+00  0.00000000E+00
  0.00000000E+00  0.00000000E+00  0.00000000E+00
  0.00000000E+00  0.00000000E+00  0.00000000E+00
  0.00000000E+00  0.00000000E+00  0.00000000E+00
  0.00000000E+00  0.00000000E+00  0.00000000E+00
  0.00000000E+00  0.00000000E+00  0.00000000E+00
  0.00000000E+00  0.00000000E+00  0.00000000E+00
  0.00000000E+00  0.00000000E+00  0.00000000E+00
  0.00000000E+00  0.00000000E+00  0.00000000E+00
  0.00000000E+00  0.00000000E+00  0.00000000E+00
  0.00000000E+00  0.00000000E+00  0.00000000E+00
  0.00000000E+00  0.00000000E+00  0.00000000E+00
  0.00000000E+00  0.00000000E+00  0.00000000E+00
  0.00000000E+00  0.00000000E+00  0.00000000E+00
  0.00000000E+00  0.00000000E+00  0.00000000E+00
  0.00000000E+00  0.00000000E+00  0.00000000E+00
  0.00000000E+00  0.00000000E+00  0.00000000E+00
  0.00000000E+00  0.00000000E+00  0.00000000E+00
  0.00000000E+00  0.00000000E+00  0.00000000E+00
  0.00000000E+00  0.00000000E+00  0.00000000E+00
  0.00000000E+00  0.00000000E+00  0.00000000E+00
  0.00000000E+00  0.00000000E+00  0.00000000E+00
  0.00000000E+00  0.00000000E+00  0.00000000E+00
  0.00000000E+00  0.00000000E+00  0.00000000E+00
  0.00000000E+00  0.00000000E+00  0.00000000E+00
  0.00000000E+00  0.00000000E+00  0.00000000E+00
  0.00000000E+00  0.00000000E+00  0.00000000E+00
  0.00000000E+00  0.00000000E+00  0.00000000E+00
  0.00000000E+00  0.00000000E+00  0.00000000E+00
  0.00000000E+00  0.00000000E+00  0.00000000E+00
  0.00000000E+00  0.00000000E+00  0.00000000E+00
  0.00000000E+00  0.00000000E+00  0.00000000E+00
  0.00000000E+00  0.00000000E+00  0.00000000E+00
  0.00000000E+00  0.00000000E+00  0.00000000E+00
  0.00000000E+00  0.00000000E+00  0.00000000E+00
  0.00000000E+00  0.00000000E+00  0.00000000E+00
  0.00000000E+00  0.00000000E+00  0.00000000E+00
  0.00000000E+00  0.00000000E+00  0.00000000E+00
  0.00000000E+00  0.00000000E+00  0.00000000E+00
  0.00000000E+00  0.00000000E+00  0.00000000E+00
  0.00000000E+00  0.00000000E+00  0.00000000E+00
  0.00000000E+00  0.00000000E+00  0.00000000E+00
