Type_036 Type_136                       
   1.00000000000000     
    16.8846940542000006    0.0000000000000000    0.0000000000000000
     0.0000000000000000    9.5784099999999999    0.0000000000000000
     0.0000000000000000    0.0000000000000000   16.1690871196999986
   Ty   Ty
    36    36
Direct
  0.7800463069997861  0.1452969540038467  0.1205849920014614
  0.8023112234675196  0.1452838220435311  0.2901734001286655
  0.2147731657061271  0.6206044791880885  0.0958480079380450
  0.2973302850015926  0.6452969540038467  0.2159689649977494
  0.3876139357509985  0.1243782834416152  0.1257363955397963
  0.4697582780024945  0.1452969540038467  0.2477636230012692
  0.9524743000006950  0.6452969540038467  0.1523796499987995
  0.9536982261573428  0.6453281891775333  0.3059810598442638
  0.1249022930015968  0.1452969540038467  0.1841743080023193
  0.5700965057347673  0.6459560897789913  0.1605403690068172
  0.6421862709974775  0.6452969540038467  0.2795582809986072
  0.9104040464728627  0.0058830823696212  0.1165187129707874
  0.9411785766735292  0.0093114331084152  0.2691645159606750
  0.3582793025909297  0.6443077212501862  0.0579741603382118
  0.4248667550014389  0.5131939539965416  0.1907679470006585
  0.4713538221926115  0.4545042350139568  0.3261254920616565
  0.5344855693701547  0.1544241594481761  0.1012800784161030
  0.5972947470014347  0.0131939539965416  0.2225626049979965
  0.0800107689996281  0.5131939539965416  0.1271786320017156
  0.1223502083762114  0.4611824302050138  0.2649093772326410
  0.2524387620005299  0.0131939539965416  0.1589732889971387
  0.2951695587436660  0.9732493978436949  0.3073265838889370
  0.7749666250212641  0.4332150537197705  0.1180474687636774
  0.7697227400023365  0.5131939539965416  0.2543572630015163
  0.9102714084402876  0.2847297852775128  0.1164976686658434
  0.9412221722161931  0.2813680204438924  0.2691220927307825
  0.4146297648051558  0.8844000445063429  0.0595676324872088
  0.4248667550014389  0.7773999540007139  0.1907679470006585
  0.4653337378858566  0.8226431892767181  0.3346530822576455
  0.5972947470014347  0.2773999540007139  0.2225626049979965
  0.0800107689996281  0.7773999540007139  0.1271786320017156
  0.1208996972670775  0.8245863799002109  0.2684664255851033
  0.2524387620005299  0.2773999540007139  0.1589732889971387
  0.2968125265173782  0.3213158367307329  0.3051909636560595
  0.7762758022813969  0.8564460012883117  0.1177954288266179
  0.7697227400023365  0.7773999540007139  0.2543572630015163
  0.9044134496355554  0.1453870683965306  0.3588989580697870
  0.9914612059989238  0.1452969540038467  0.1824097040028008
  0.4741772270021372  0.6452969540038467  0.0870257299984232
  0.5087451840007304  0.6452969540038467  0.2777936780009966
  0.6527966027230576  0.1459514093988474  0.1289153496402662
  0.6779061959107722  0.1441358585193129  0.2876571476031700
  0.1123202424759526  0.6455805349739663  0.0319979338270500
  0.1638891979989197  0.6452969540038467  0.2142043620001388
  0.2832743246366505  0.1451440328196441  0.0628950724905764
  0.3363171909998286  0.1452969540038467  0.2459990199974769
  0.8190332129980220  0.6452969540038467  0.1506150459992810
  0.8365091534001863  0.6452807342450342  0.3293096427511131
  0.8161984957774209  0.2938072214699545  0.0351632145952934
  0.8290610549983839  0.3135119539986277  0.2144997340000927
  0.3117770760015972  0.8135119539986277  0.1191157609976301
  0.3507913803227396  0.7872578359038727  0.3002603505787818
  0.4785177530528131  0.3148929950691155  0.1634096471890985
  0.5321199491894291  0.2763499605258062  0.3312838612869911
  0.0014890469983797  0.8135119539986277  0.2462943919974308
  0.9672740684595027  0.8218200486824045  0.0791456723453976
  0.1400866305132524  0.3257981027435690  0.1121694093471888
  0.1824001821776520  0.2801381889165313  0.2725967862607277
  0.6566330619974821  0.8135119539986277  0.1827050760027547
  0.6923308308622964  0.7967681343563271  0.3496863322302985
  0.3117770760015972  0.4770819539986277  0.1191157609976301
  0.3551001653600352  0.5047696911387192  0.3006512050193066
  0.8164152730129572  0.9971242185394047  0.0350686069412731
  0.8290610549983839  0.9770819539986277  0.2144997340000927
  0.0014890469983797  0.4770819539986277  0.2462943919974308
  0.9670281372932834  0.4688203856485558  0.0790824913511727
  0.4842050690024990  0.9770819539986277  0.1509104190011499
  0.5269253485162722  0.0002398141653970  0.3268624803475007
  0.6566330619974821  0.4770819539986277  0.1827050760027547
  0.6922245133184788  0.4936087081050005  0.3496409730152337
  0.1390698057164954  0.9665940388227270  0.1116983503292275
  0.1808749881517855  0.0063744355796018  0.2715284238372888
 
  0.00000000E+00  0.00000000E+00  0.00000000E+00
  0.00000000E+00  0.00000000E+00  0.00000000E+00
  0.00000000E+00  0.00000000E+00  0.00000000E+00
  0.00000000E+00  0.00000000E+00  0.00000000E+00
  0.00000000E+00  0.00000000E+00  0.00000000E+00
  0.00000000E+00  0.00000000E+00  0.00000000E+00
  0.00000000E+00  0.00000000E+00  0.00000000E+00
  0.00000000E+00  0.00000000E+00  0.00000000E+00
  0.00000000E+00  0.00000000E+00  0.00000000E+00
  0.00000000E+00  0.00000000E+00  0.00000000E+00
  0.00000000E+00  0.00000000E+00  0.00000000E+00
  0.00000000E+00  0.00000000E+00  0.00000000E+00
  0.00000000E+00  0.00000000E+00  0.00000000E+00
  0.00000000E+00  0.00000000E+00  0.00000000E+00
  0.00000000E+00  0.00000000E+00  0.00000000E+00
  0.00000000E+00  0.00000000E+00  0.00000000E+00
  0.00000000E+00  0.00000000E+00  0.00000000E+00
  0.00000000E+00  0.00000000E+00  0.00000000E+00
  0.00000000E+00  0.00000000E+00  0.00000000E+00
  0.00000000E+00  0.00000000E+00  0.00000000E+00
  0.00000000E+00  0.00000000E+00  0.00000000E+00
  0.00000000E+00  0.00000000E+00  0.00000000E+00
  0.00000000E+00  0.00000000E+00  0.00000000E+00
  0.00000000E+00  0.00000000E+00  0.00000000E+00
  0.00000000E+00  0.00000000E+00  0.00000000E+00
  0.00000000E+00  0.00000000E+00  0.00000000E+00
  0.00000000E+00  0.00000000E+00  0.00000000E+00
  0.00000000E+00  0.00000000E+00  0.00000000E+00
  0.00000000E+00  0.00000000E+00  0.00000000E+00
  0.00000000E+00  0.00000000E+00  0.00000000E+00
  0.00000000E+00  0.00000000E+00  0.00000000E+00
  0.00000000E+00  0.00000000E+00  0.00000000E+00
  0.00000000E+00  0.00000000E+00  0.00000000E+00
  0.00000000E+00  0.00000000E+00  0.00000000E+00
  0.00000000E+00  0.00000000E+00  0.00000000E+00
  0.00000000E+00  0.00000000E+00  0.00000000E+00
  0.00000000E+00  0.00000000E+00  0.00000000E+00
  0.00000000E+00  0.00000000E+00  0.00000000E+00
  0.00000000E+00  0.00000000E+00  0.00000000E+00
  0.00000000E+00  0.00000000E+00  0.00000000E+00
  0.00000000E+00  0.00000000E+00  0.00000000E+00
  0.00000000E+00  0.00000000E+00  0.00000000E+00
  0.00000000E+00  0.00000000E+00  0.00000000E+00
  0.00000000E+00  0.00000000E+00  0.00000000E+00
  0.00000000E+00  0.00000000E+00  0.00000000E+00
  0.00000000E+00  0.00000000E+00  0.00000000E+00
  0.00000000E+00  0.00000000E+00  0.00000000E+00
  0.00000000E+00  0.00000000E+00  0.00000000E+00
  0.00000000E+00  0.00000000E+00  0.00000000E+00
  0.00000000E+00  0.00000000E+00  0.00000000E+00
  0.00000000E+00  0.00000000E+00  0.00000000E+00
  0.00000000E+00  0.00000000E+00  0.00000000E+00
  0.00000000E+00  0.00000000E+00  0.00000000E+00
  0.00000000E+00  0.00000000E+00  0.00000000E+00
  0.00000000E+00  0.00000000E+00  0.00000000E+00
  0.00000000E+00  0.00000000E+00  0.00000000E+00
  0.00000000E+00  0.00000000E+00  0.00000000E+00
  0.00000000E+00  0.00000000E+00  0.00000000E+00
  0.00000000E+00  0.00000000E+00  0.00000000E+00
  0.00000000E+00  0.00000000E+00  0.00000000E+00
  0.00000000E+00  0.00000000E+00  0.00000000E+00
  0.00000000E+00  0.00000000E+00  0.00000000E+00
  0.00000000E+00  0.00000000E+00  0.00000000E+00
  0.00000000E+00  0.00000000E+00  0.00000000E+00
  0.00000000E+00  0.00000000E+00  0.00000000E+00
  0.00000000E+00  0.00000000E+00  0.00000000E+00
  0.00000000E+00  0.00000000E+00  0.00000000E+00
  0.00000000E+00  0.00000000E+00  0.00000000E+00
  0.00000000E+00  0.00000000E+00  0.00000000E+00
  0.00000000E+00  0.00000000E+00  0.00000000E+00
  0.00000000E+00  0.00000000E+00  0.00000000E+00
  0.00000000E+00  0.00000000E+00  0.00000000E+00
