Type_037 Type_137                       
   1.00000000000000     
    16.8846940542000006    0.0000000000000000    0.0000000000000000
     0.0000000000000000    9.5784099999999999    0.0000000000000000
     0.0000000000000000    0.0000000000000000   16.6546456851000002
   Ty   Ty
    37    37
Direct
  0.7621599444319784  0.1452969570314906  0.1763554520903270
  0.8223996723379159  0.1452969569897320  0.3171965025185841
  0.2266744004312002  0.6452969568226905  0.0960181306787362
  0.2973302840006866  0.6452969570001699  0.2160738940018092
  0.4162773999124738  0.1452969568435662  0.1117014068011244
  0.4697582760006824  0.1452969570001699  0.2469415940009725
  0.9524742979988829  0.6452969570001699  0.1543384960029286
  0.9740899501053661  0.6452969569897320  0.3166480915242786
  0.1820019831117747  0.1452969570001699  0.0492746527135210
  0.1249022909997848  0.1452969570001699  0.1852061949993669
  0.0556168829761177  0.1452969569479663  0.3110727861677063
  0.5727507711337196  0.6452969566974076  0.1598872914650045
  0.6421862690015914  0.6452969570001699  0.2778092929974108
  0.9410496707903064  0.0044335274434886  0.2686969545502578
  0.3940170410635986  0.5177480865404576  0.0393226330228060
  0.4248667529996268  0.5131939570033026  0.1916076000016602
  0.4657782148942005  0.4642950190271691  0.3287128142328370
  0.5648860870551289  0.0195880274701139  0.0687889241753723
  0.5972947460005287  0.0131939570033026  0.2224753000008235
  0.0800107669978161  0.5131939570033026  0.1298722020027796
  0.1123391369669591  0.5044385496757826  0.2940250813009442
  0.2524387599987179  0.0131939570033026  0.1607399009992179
  0.2911471339735172  0.9776237233215141  0.3050678205508461
  0.7476174550856030  0.4953568134585993  0.1036819926733656
  0.7697227380005245  0.5131939570033026  0.2533429989972618
  0.9410496708080771  0.2861603865255304  0.2686969545682700
  0.3940170434859098  0.7728458340058495  0.0393226340975801
  0.4248667529996268  0.7773999569970371  0.1916076000016602
  0.4657782148764298  0.8262988949314121  0.3287128142568534
  0.5648860914910969  0.2710058981814285  0.0687889261628030
  0.5972947460005287  0.2773999569970371  0.2224753000008235
  0.0800107669978161  0.7773999569970371  0.1298722020027796
  0.1123391369669591  0.7861553643245571  0.2940250813069483
  0.2524387599987179  0.2773999569970371  0.1607399009992179
  0.2911471339735172  0.3129701906892706  0.3050678205448420
  0.7476174552336659  0.7952371006774612  0.1036819928294790
  0.7697227380005245  0.7773999569970371  0.2533429989972618
  0.9421263104701083  0.1452969569688491  0.3623434800236467
  0.0029948007489935  0.1452969569897320  0.1980419491392027
  0.4741772250003251  0.6452969570001699  0.0908899399975951
  0.5087451819989184  0.6452969570001699  0.2760961359996870
  0.6466052180012269  0.1452969570001699  0.1217576390000445
  0.6862142822195736  0.1452969568957698  0.2781161538575319
  0.1206151902049655  0.6452969570001699  0.0406337926663554
  0.1638891969980136  0.6452969570001699  0.2143607369980813
  0.0782611128373603  0.6452969569897320  0.3799518204497900
  0.3007859292029451  0.1452969570314906  0.0709090225291646
  0.3363171889980094  0.1452969570001699  0.2452284360005237
  0.8190332110021288  0.6452969570001699  0.1526253389992007
  0.8500229651558229  0.6452969570001699  0.3139400734881832
  0.7824914177946596  0.2977152110632133  0.0891880192821475
  0.8214528893788184  0.3146033903852512  0.2431092626499023
  0.3117770739997852  0.8135119569949509  0.1220444000029630
  0.3504644420446610  0.7931933716451880  0.2953115103253197
  0.4842050670006870  0.3135119569949509  0.1529121000021263
  0.5275943544137931  0.2860622045203769  0.3238278300165263
  0.0014890459974737  0.8135119569949509  0.2455151969974452
  0.9755663839406452  0.7938151567118155  0.0724985916860561
  0.1401516571519608  0.3199736042934092  0.1066603808863533
  0.1739170379974695  0.3135119569949509  0.2763828959998875
  0.6566330600015888  0.8135119569949509  0.1837797989985646
  0.6955620977673931  0.7898538216572462  0.3484645075873374
  0.3117770739997852  0.4770819569949509  0.1220444000029630
  0.3504644420624317  0.4974005423342689  0.2953115102952992
  0.7824914179723308  0.9928787029893300  0.0891880193782129
  0.8214528893551289  0.9759905236150885  0.2431092626378941
  0.0014890459974737  0.4770819569949509  0.2455151969974452
  0.9755663839406452  0.4967787572885243  0.0724985916860561
  0.4842050670006870  0.9770819569949509  0.1529121000021263
  0.5275943544374826  0.0045317093964456  0.3238278299564783
  0.6566330600015888  0.4770819569949509  0.1837797989985646
  0.6955620978029273  0.5007400924266108  0.3484645076173649
  0.1401516571519608  0.9706203097069377  0.1066603808863533
  0.1739170379974695  0.9770819569949509  0.2763828959998875
 
  0.00000000E+00  0.00000000E+00  0.00000000E+00
  0.00000000E+00  0.00000000E+00  0.00000000E+00
  0.00000000E+00  0.00000000E+00  0.00000000E+00
  0.00000000E+00  0.00000000E+00  0.00000000E+00
  0.00000000E+00  0.00000000E+00  0.00000000E+00
  0.00000000E+00  0.00000000E+00  0.00000000E+00
  0.00000000E+00  0.00000000E+00  0.00000000E+00
  0.00000000E+00  0.00000000E+00  0.00000000E+00
  0.00000000E+00  0.00000000E+00  0.00000000E+00
  0.00000000E+00  0.00000000E+00  0.00000000E+00
  0.00000000E+00  0.00000000E+00  0.00000000E+00
  0.00000000E+00  0.00000000E+00  0.00000000E+00
  0.00000000E+00  0.00000000E+00  0.00000000E+00
  0.00000000E+00  0.00000000E+00  0.00000000E+00
  0.00000000E+00  0.00000000E+00  0.00000000E+00
  0.00000000E+00  0.00000000E+00  0.00000000E+00
  0.00000000E+00  0.00000000E+00  0.00000000E+00
  0.00000000E+00  0.00000000E+00  0.00000000E+00
  0.00000000E+00  0.00000000E+00  0.00000000E+00
  0.00000000E+00  0.00000000E+00  0.00000000E+00
  0.00000000E+00  0.00000000E+00  0.00000000E+00
  0.00000000E+00  0.00000000E+00  0.00000000E+00
  0.00000000E+00  0.00000000E+00  0.00000000E+00
  0.00000000E+00  0.00000000E+00  0.00000000E+00
  0.00000000E+00  0.00000000E+00  0.00000000E+00
  0.00000000E+00  0.00000000E+00  0.00000000E+00
  0.00000000E+00  0.00000000E+00  0.00000000E+00
  0.00000000E+00  0.00000000E+00  0.00000000E+00
  0.00000000E+00  0.00000000E+00  0.00000000E+00
  0.00000000E+00  0.00000000E+00  0.00000000E+00
  0.00000000E+00  0.00000000E+00  0.00000000E+00
  0.00000000E+00  0.00000000E+00  0.00000000E+00
  0.00000000E+00  0.00000000E+00  0.00000000E+00
  0.00000000E+00  0.00000000E+00  0.00000000E+00
  0.00000000E+00  0.00000000E+00  0.00000000E+00
  0.00000000E+00  0.00000000E+00  0.00000000E+00
  0.00000000E+00  0.00000000E+00  0.00000000E+00
  0.00000000E+00  0.00000000E+00  0.00000000E+00
  0.00000000E+00  0.00000000E+00  0.00000000E+00
  0.00000000E+00  0.00000000E+00  0.00000000E+00
  0.00000000E+00  0.00000000E+00  0.00000000E+00
  0.00000000E+00  0.00000000E+00  0.00000000E+00
  0.00000000E+00  0.00000000E+00  0.00000000E+00
  0.00000000E+00  0.00000000E+00  0.00000000E+00
  0.00000000E+00  0.00000000E+00  0.00000000E+00
  0.00000000E+00  0.00000000E+00  0.00000000E+00
  0.00000000E+00  0.00000000E+00  0.00000000E+00
  0.00000000E+00  0.00000000E+00  0.00000000E+00
  0.00000000E+00  0.00000000E+00  0.00000000E+00
  0.00000000E+00  0.00000000E+00  0.00000000E+00
  0.00000000E+00  0.00000000E+00  0.00000000E+00
  0.00000000E+00  0.00000000E+00  0.00000000E+00
  0.00000000E+00  0.00000000E+00  0.00000000E+00
  0.00000000E+00  0.00000000E+00  0.00000000E+00
  0.00000000E+00  0.00000000E+00  0.00000000E+00
  0.00000000E+00  0.00000000E+00  0.00000000E+00
  0.00000000E+00  0.00000000E+00  0.00000000E+00
  0.00000000E+00  0.00000000E+00  0.00000000E+00
  0.00000000E+00  0.00000000E+00  0.00000000E+00
  0.00000000E+00  0.00000000E+00  0.00000000E+00
  0.00000000E+00  0.00000000E+00  0.00000000E+00
  0.00000000E+00  0.00000000E+00  0.00000000E+00
  0.00000000E+00  0.00000000E+00  0.00000000E+00
  0.00000000E+00  0.00000000E+00  0.00000000E+00
  0.00000000E+00  0.00000000E+00  0.00000000E+00
  0.00000000E+00  0.00000000E+00  0.00000000E+00
  0.00000000E+00  0.00000000E+00  0.00000000E+00
  0.00000000E+00  0.00000000E+00  0.00000000E+00
  0.00000000E+00  0.00000000E+00  0.00000000E+00
  0.00000000E+00  0.00000000E+00  0.00000000E+00
  0.00000000E+00  0.00000000E+00  0.00000000E+00
  0.00000000E+00  0.00000000E+00  0.00000000E+00
  0.00000000E+00  0.00000000E+00  0.00000000E+00
  0.00000000E+00  0.00000000E+00  0.00000000E+00
