Type_036 Type_136 
1.0
1.6884694054200001e+01 0.0000000000000000e+00 0.0000000000000000e+00 
0.0000000000000000e+00 9.5784099999999999e+00 0.0000000000000000e+00 
0.0000000000000000e+00 0.0000000000000000e+00 1.6173863021300001e+01 
Type_0 Type_1 
36 36 
Cartesian
   1.2115252027    8.7097679331    4.5705083359
   1.6807120367    8.8448295298    1.9259931188
  10.1361766830    4.0926337625    3.4988719072
  10.1574734002    3.7268201248    1.1578889462
   4.0663068892    3.9674016394    4.1508270875
   4.5403114913    4.0227910816    1.6673501474
  12.2572631878    8.8609365081    5.5003126478
  12.7426182745    8.8448295298    2.9541742926
   7.1431123429    8.3704319210    3.4762523302
   7.3642461912    9.0487498472    1.1278565268
  15.7231236306    3.2660387586    4.6343551134
  15.6540121827    4.0556245298    2.4400837057
   6.1490115478    6.4285229679    4.7707740870
   7.6024335692    5.7242698923    2.9223635125
  15.8283224530    0.5317562260    4.6030592091
  16.4119918310    0.5317562260    1.5185156554
   1.8550223070    5.3209612260    4.0889686222
   2.2162110694    5.3185971055    1.3662666350
  10.1540573082    0.5338392444    5.1273108744
  10.5892040147    0.5317562260    2.5466968454
   4.7664161983    0.5317562260    3.5748780192
   5.0066289369    0.5428854705    0.9582265493
  12.2391312315    5.4178298320    3.9870892089
  13.5005979229    5.3209612260    2.0326062423
   1.2638953581    2.0172679858    4.5306981932
   1.6807120367    1.7970929222    1.9259931188
   9.8312243663    6.5862979222    3.4682648957
  10.4437369208    7.0725907097    1.2265607761
   3.8995156352    6.7439815364    4.2157428551
   4.5564632784    6.6166574769    1.7060279562
  12.2593705700    1.7863092399    5.4976886479
  12.7426182745    1.7970929222    2.9541742926
   6.8639763584    1.5759026700    3.6536318664
   7.6057960931    2.1036349548    1.4238725691
  15.7552956572    7.3616189670    4.6417914565
  15.6540121827    6.5862979222    2.4400837057
   0.4115661940    1.9217133813    0.3643595167
   8.1118235137    6.8898063681    4.6370295402
   8.4709544391    7.3443878034    1.8759519825
  16.5983486454    1.9539809362    5.8947737058
  16.6559214603    2.1429884642    3.0845435538
   2.1416418138    6.9820574946    5.2914356139
   2.6826213142    6.9321934642    2.5704529669
  10.8331336608    2.1429884642    4.1127247437
  11.3680310801    2.1138563177    1.4077297156
   5.1742105924    2.2324179436    4.6748818689
   5.5940152224    2.1429884642    2.0563623800
  13.7445275690    6.9321934642    3.5986341568
  14.4062704058    6.7045270493    0.8607358165
   2.5133042869    0.5317562260    3.6034100560
   2.9596618989    0.5315734048    0.8584507839
  10.5142544128    5.3836281384    5.0395781435
  11.2474859946    5.3209612260    2.0611382791
   5.4246981782    5.3209612260    3.0893194691
   3.9259494464    5.3388106916    0.2297131686
  13.5752105248    0.5317562260    4.6315912459
  14.1979244315    0.5421971669    2.0182689938
   0.1038568428    5.3209192657    1.4123183773
   8.3360920864    0.5317562260    2.5752288660
  16.4866044329    5.3209612260    4.1175006429
   0.4120481655    8.7203304210    0.3647427881
   8.4181536373    3.8596674368    2.2495169762
  16.5400390208    8.6993727418    5.9308965990
  16.6559214603    8.4989339879    3.0845435538
   2.3282296819    3.6739491515    5.2511899991
   2.6826213142    3.7097289879    2.5704529669
  10.8331336608    8.4989339879    4.1127247437
  11.5356864987    8.7644739720    1.2771575750
   5.3023838267    8.3297255337    4.6967199043
   5.5940152224    8.4989339879    2.0563623800
  13.7445275690    3.7097289879    3.5986341568
  14.4051770152    3.9355588650    0.8629080785
