Type_039 Type_139 
1.0
9.5784099999999999e+00 0.0000000000000000e+00 0.0000000000000000e+00 
-4.7892049998999999e+00 1.0403353751099999e+01 0.0000000000000000e+00 
0.0000000000000000e+00 0.0000000000000000e+00 2.0846830137100000e+01 
Type_0 Type_1 
39 39 
Cartesian
   3.9339056301    4.8066025587    2.0726902223
   4.0556245203    6.3581094339    4.1718577448
   4.0556245155    8.2527059550    6.6749723917
   4.0477098354   10.2029335491    8.8857679312
   4.0556245202    0.6856046070    5.8406008427
   4.0556245250    2.5802011281    8.3437154896
   3.9917783775    4.2856266798   10.0402763107
  -0.6964427392    7.4824092097    1.2287832551
  -0.7335804749    9.1943618370    3.3374861958
  -0.7335804750    1.6272604994    2.5031146469
  -0.7335804798    3.5218570205    5.0062292938
  -0.7335804750    5.4164535415    7.5093439406
  -0.6401291920    7.3880823006    9.0529884156
   8.9110403870    0.2141296034    0.5259745492
   5.3210607242    0.7496031056    1.8490879741
   5.3209612213    2.7160119593    2.9914189133
   5.3209612117    4.6106084908    5.4945335602
   5.3209612165    6.5052050118    7.9976482071
   5.2785747645    8.3642589055   10.0187114321
   5.3209612165    0.8327001849    9.6663913050
   0.5317562213    5.5522643728    2.1570473644
   0.5317562165    7.4468608938    4.6601620112
   0.5317562213    9.3414574149    7.1632766581
   0.5317562212    1.7743560773    6.3289051091
   0.5317562165    3.6689525984    8.8320197560
  -4.2574487835   10.2831133073    3.8257904623
   5.3210644655    8.3668953563    2.5742987758
  -2.9921120921    8.2527059550    6.6749723917
  -2.9669460929   10.1128671694    8.8785614902
   6.7079879438    4.8065420190    2.0726690250
   6.5862979127    6.3581094339    4.1718577448
   6.5862979127    0.6856046070    5.8406008427
   6.5862979175    2.5802011281    8.3437154896
   1.7599793058    7.4824294750    1.2287981755
   1.7970929175    9.1943618370    3.3374861958
   1.7970929175    1.6272604994    2.5031146469
   1.7970929127    3.5218570205    5.0062292938
   1.7970929175    5.4164535415    7.5093439406
   1.7308783751    0.2141290809    0.5259711352
  -2.6462165454    6.0272031990    6.4865362472
  -2.6462165406    7.9217997201    8.9896508940
   6.9160300297    2.1545286774    1.7828467562
   6.9321934594    4.1326066779    3.9834216003
   6.9321934594    0.3546983825    8.1552793451
   6.7416260780    2.1264948685   10.2866577571
   2.2611478835    5.4724313998    1.0157407735
   2.1429884498    6.9688590914    3.1490500513
   2.1429884547    8.8634556124    5.6521646982
   2.1429884594    1.2963542645    4.8177931492
   2.1429884498    3.1909507959    7.3209077961
   2.1316984141    4.8314559194    9.4737152711
  -2.6462165453    9.8051114944    2.3146785024
   0.5669877533    1.4524612130    9.2263556849
  -4.2574487787   10.1470018087    7.3054051760
   5.3209612213    6.3578087666    2.2991758822
   5.3209612165    8.2524052877    4.8022905291
   5.3209612164    0.6853039501    3.9679189801
   5.3209612117    2.5799004711    6.4710336270
   5.3626786505    4.3668461663    8.5482988560
   0.5317562117    9.1940611801    1.4648043333
   0.5317572367    1.8153660745    0.8234884145
   0.5317562213    3.5215563531    3.1335474312
   0.5317562165    5.4161528742    5.6366620780
   0.6540718050    7.1953942537    7.4830634315
   0.4070732755    9.1301934928    9.3938781090
   3.7259362157    2.1543754624    1.7828579026
   3.7097289831    4.1326066779    3.9834216003
   3.7097289783    6.0272031990    6.4865362472
   3.8455196054    7.9958660572    8.6905911322
   3.7097289831    0.3546983825    8.1552793451
   4.0104423700    2.2874603263   10.3695621627
  -1.1976464107    5.4724165905    1.0157516784
  -1.0794760265    6.9688590914    3.1490500513
  -1.0794760217    8.8634556124    5.6521646982
  -1.0794760265    3.1909507959    7.3209077961
  -0.5280739938    5.3468723623    9.5144302704
   8.4989339831    1.2963542645    4.8177931492
   3.7097289784    9.8051114944    2.3146785024
