Structure 1 made from -120-1.xsd file   
   1.00000000000000     
     6.1690871197000003    1.1673387609999999    0.0000000000000000
     0.0000000000000000   11.2564630381999997    0.0000000000000000
     0.0000000000000000    0.0000000000000000   27.8914833038000012
   Ni   S 
    48    48
Direct
  0.2563094380000024  0.0164585910000028  0.0000000000000000
  0.2563094380000024  0.0164585910000028  0.3434170170000002
  0.0063094380000024  0.2664585830000021  0.1717085089999983
  0.0063094380000024  0.2664585830000021  0.5151255259999985
  0.2563094380000024  0.0164585910000028  0.2526841809999993
  0.2563094380000024  0.0164585910000028  0.5961011979999995
  0.0063094380000024  0.2664585830000021  0.0809756720000010
  0.0063094380000024  0.2664585830000021  0.4243926890000012
  0.1902579380000020  0.2146130850000034  0.2980505989999997
  0.1902579380000020  0.2146130850000034  0.6414676159999999
  0.4402579380000020  0.4646130779999993  0.1263420900000014
  0.4402579380000020  0.4646130779999993  0.4697591079999981
  0.7563094380000024  0.0164585910000028  0.0000000000000000
  0.7563094380000024  0.0164585910000028  0.3434170170000002
  0.5063094380000024  0.2664585830000021  0.1717085089999983
  0.5063094380000024  0.2664585830000021  0.5151255259999985
  0.7563094380000024  0.0164585910000028  0.2526841809999993
  0.7563094380000024  0.0164585910000028  0.5961011979999995
  0.5063094380000024  0.2664585830000021  0.0809756720000010
  0.5063094380000024  0.2664585830000021  0.4243926890000012
  0.6902579380000020  0.2146130850000034  0.2980505989999997
  0.6902579380000020  0.2146130850000034  0.6414676159999999
  0.9402579380000020  0.4646130779999993  0.1263420900000014
  0.9402579380000020  0.4646130779999993  0.4697591079999981
  0.2563094380000024  0.5164585910000028  0.0000000000000000
  0.2563094380000024  0.5164585910000028  0.3434170170000002
  0.0063094380000024  0.7664585830000021  0.1717085089999983
  0.0063094380000024  0.7664585830000021  0.5151255259999985
  0.2563094380000024  0.5164585910000028  0.2526841809999993
  0.2563094380000024  0.5164585910000028  0.5961011979999995
  0.0063094380000024  0.7664585830000021  0.0809756720000010
  0.0063094380000024  0.7664585830000021  0.4243926890000012
  0.1902579380000020  0.7146130850000034  0.2980505989999997
  0.1902579380000020  0.7146130850000034  0.6414676159999999
  0.4402579380000020  0.9646130779999993  0.1263420900000014
  0.4402579380000020  0.9646130779999993  0.4697591079999981
  0.7563094380000024  0.5164585910000028  0.0000000000000000
  0.7563094380000024  0.5164585910000028  0.3434170170000002
  0.5063094380000024  0.7664585830000021  0.1717085089999983
  0.5063094380000024  0.7664585830000021  0.5151255259999985
  0.7563094380000024  0.5164585910000028  0.2526841809999993
  0.7563094380000024  0.5164585910000028  0.5961011979999995
  0.5063094380000024  0.7664585830000021  0.0809756720000010
  0.5063094380000024  0.7664585830000021  0.4243926890000012
  0.6902579380000020  0.7146130850000034  0.2980505989999997
  0.6902579380000020  0.7146130850000034  0.6414676159999999
  0.9402579380000020  0.9646130779999993  0.1263420900000014
  0.9402579380000020  0.9646130779999993  0.4697591079999981
  0.4684041049999976  0.1666175860000010  0.2402827049999985
  0.4684041049999976  0.1666175860000010  0.5836997230000023
  0.2184041049999976  0.4166175789999969  0.0685741969999967
  0.2184041049999976  0.4166175789999969  0.4119912139999968
  0.4684041049999976  0.1666175860000010  0.0124014749999972
  0.4684041049999976  0.1666175860000010  0.3558184919999974
  0.2184041049999976  0.4166175789999969  0.1841099840000027
  0.2184041049999976  0.4166175789999969  0.5275270010000028
  0.0525116049999994  0.4142950789999986  0.2980505989999997
  0.0525116049999994  0.4142950789999986  0.6414676159999999
  0.3025116049999994  0.1642950860000028  0.1263420900000014
  0.3025116049999994  0.1642950860000028  0.4697591079999981
  0.9684041049999976  0.1666175860000010  0.2402827049999985
  0.9684041049999976  0.1666175860000010  0.5836997230000023
  0.7184041049999976  0.4166175789999969  0.0685741969999967
  0.7184041049999976  0.4166175789999969  0.4119912139999968
  0.9684041049999976  0.1666175860000010  0.0124014749999972
  0.9684041049999976  0.1666175860000010  0.3558184919999974
  0.7184041049999976  0.4166175789999969  0.1841099840000027
  0.7184041049999976  0.4166175789999969  0.5275270010000028
  0.5525116049999994  0.4142950789999986  0.2980505989999997
  0.5525116049999994  0.4142950789999986  0.6414676159999999
  0.8025116049999994  0.1642950860000028  0.1263420900000014
  0.8025116049999994  0.1642950860000028  0.4697591079999981
  0.4684041049999976  0.6666175860000010  0.2402827049999985
  0.4684041049999976  0.6666175860000010  0.5836997230000023
  0.2184041049999976  0.9166175789999969  0.0685741969999967
  0.2184041049999976  0.9166175789999969  0.4119912139999968
  0.4684041049999976  0.6666175860000010  0.0124014749999972
  0.4684041049999976  0.6666175860000010  0.3558184919999974
  0.2184041049999976  0.9166175789999969  0.1841099840000027
  0.2184041049999976  0.9166175789999969  0.5275270010000028
  0.0525116049999994  0.9142950789999986  0.2980505989999997
  0.0525116049999994  0.9142950789999986  0.6414676159999999
  0.3025116049999994  0.6642950860000028  0.1263420900000014
  0.3025116049999994  0.6642950860000028  0.4697591079999981
  0.9684041049999976  0.6666175860000010  0.2402827049999985
  0.9684041049999976  0.6666175860000010  0.5836997230000023
  0.7184041049999976  0.9166175789999969  0.0685741969999967
  0.7184041049999976  0.9166175789999969  0.4119912139999968
  0.9684041049999976  0.6666175860000010  0.0124014749999972
  0.9684041049999976  0.6666175860000010  0.3558184919999974
  0.7184041049999976  0.9166175789999969  0.1841099840000027
  0.7184041049999976  0.9166175789999969  0.5275270010000028
  0.5525116049999994  0.9142950789999986  0.2980505989999997
  0.5525116049999994  0.9142950789999986  0.6414676159999999
  0.8025116049999994  0.6642950860000028  0.1263420900000014
  0.8025116049999994  0.6642950860000028  0.4697591079999981
 
  0.00000000E+00  0.00000000E+00  0.00000000E+00
  0.00000000E+00  0.00000000E+00  0.00000000E+00
  0.00000000E+00  0.00000000E+00  0.00000000E+00
  0.00000000E+00  0.00000000E+00  0.00000000E+00
  0.00000000E+00  0.00000000E+00  0.00000000E+00
  0.00000000E+00  0.00000000E+00  0.00000000E+00
  0.00000000E+00  0.00000000E+00  0.00000000E+00
  0.00000000E+00  0.00000000E+00  0.00000000E+00
  0.00000000E+00  0.00000000E+00  0.00000000E+00
  0.00000000E+00  0.00000000E+00  0.00000000E+00
  0.00000000E+00  0.00000000E+00  0.00000000E+00
  0.00000000E+00  0.00000000E+00  0.00000000E+00
  0.00000000E+00  0.00000000E+00  0.00000000E+00
  0.00000000E+00  0.00000000E+00  0.00000000E+00
  0.00000000E+00  0.00000000E+00  0.00000000E+00
  0.00000000E+00  0.00000000E+00  0.00000000E+00
  0.00000000E+00  0.00000000E+00  0.00000000E+00
  0.00000000E+00  0.00000000E+00  0.00000000E+00
  0.00000000E+00  0.00000000E+00  0.00000000E+00
  0.00000000E+00  0.00000000E+00  0.00000000E+00
  0.00000000E+00  0.00000000E+00  0.00000000E+00
  0.00000000E+00  0.00000000E+00  0.00000000E+00
  0.00000000E+00  0.00000000E+00  0.00000000E+00
  0.00000000E+00  0.00000000E+00  0.00000000E+00
  0.00000000E+00  0.00000000E+00  0.00000000E+00
  0.00000000E+00  0.00000000E+00  0.00000000E+00
  0.00000000E+00  0.00000000E+00  0.00000000E+00
  0.00000000E+00  0.00000000E+00  0.00000000E+00
  0.00000000E+00  0.00000000E+00  0.00000000E+00
  0.00000000E+00  0.00000000E+00  0.00000000E+00
  0.00000000E+00  0.00000000E+00  0.00000000E+00
  0.00000000E+00  0.00000000E+00  0.00000000E+00
  0.00000000E+00  0.00000000E+00  0.00000000E+00
  0.00000000E+00  0.00000000E+00  0.00000000E+00
  0.00000000E+00  0.00000000E+00  0.00000000E+00
  0.00000000E+00  0.00000000E+00  0.00000000E+00
  0.00000000E+00  0.00000000E+00  0.00000000E+00
  0.00000000E+00  0.00000000E+00  0.00000000E+00
  0.00000000E+00  0.00000000E+00  0.00000000E+00
  0.00000000E+00  0.00000000E+00  0.00000000E+00
  0.00000000E+00  0.00000000E+00  0.00000000E+00
  0.00000000E+00  0.00000000E+00  0.00000000E+00
  0.00000000E+00  0.00000000E+00  0.00000000E+00
  0.00000000E+00  0.00000000E+00  0.00000000E+00
  0.00000000E+00  0.00000000E+00  0.00000000E+00
  0.00000000E+00  0.00000000E+00  0.00000000E+00
  0.00000000E+00  0.00000000E+00  0.00000000E+00
  0.00000000E+00  0.00000000E+00  0.00000000E+00
  0.00000000E+00  0.00000000E+00  0.00000000E+00
  0.00000000E+00  0.00000000E+00  0.00000000E+00
  0.00000000E+00  0.00000000E+00  0.00000000E+00
  0.00000000E+00  0.00000000E+00  0.00000000E+00
  0.00000000E+00  0.00000000E+00  0.00000000E+00
  0.00000000E+00  0.00000000E+00  0.00000000E+00
  0.00000000E+00  0.00000000E+00  0.00000000E+00
  0.00000000E+00  0.00000000E+00  0.00000000E+00
  0.00000000E+00  0.00000000E+00  0.00000000E+00
  0.00000000E+00  0.00000000E+00  0.00000000E+00
  0.00000000E+00  0.00000000E+00  0.00000000E+00
  0.00000000E+00  0.00000000E+00  0.00000000E+00
  0.00000000E+00  0.00000000E+00  0.00000000E+00
  0.00000000E+00  0.00000000E+00  0.00000000E+00
  0.00000000E+00  0.00000000E+00  0.00000000E+00
  0.00000000E+00  0.00000000E+00  0.00000000E+00
  0.00000000E+00  0.00000000E+00  0.00000000E+00
  0.00000000E+00  0.00000000E+00  0.00000000E+00
  0.00000000E+00  0.00000000E+00  0.00000000E+00
  0.00000000E+00  0.00000000E+00  0.00000000E+00
  0.00000000E+00  0.00000000E+00  0.00000000E+00
  0.00000000E+00  0.00000000E+00  0.00000000E+00
  0.00000000E+00  0.00000000E+00  0.00000000E+00
  0.00000000E+00  0.00000000E+00  0.00000000E+00
  0.00000000E+00  0.00000000E+00  0.00000000E+00
  0.00000000E+00  0.00000000E+00  0.00000000E+00
  0.00000000E+00  0.00000000E+00  0.00000000E+00
  0.00000000E+00  0.00000000E+00  0.00000000E+00
  0.00000000E+00  0.00000000E+00  0.00000000E+00
  0.00000000E+00  0.00000000E+00  0.00000000E+00
  0.00000000E+00  0.00000000E+00  0.00000000E+00
  0.00000000E+00  0.00000000E+00  0.00000000E+00
  0.00000000E+00  0.00000000E+00  0.00000000E+00
  0.00000000E+00  0.00000000E+00  0.00000000E+00
  0.00000000E+00  0.00000000E+00  0.00000000E+00
  0.00000000E+00  0.00000000E+00  0.00000000E+00
  0.00000000E+00  0.00000000E+00  0.00000000E+00
  0.00000000E+00  0.00000000E+00  0.00000000E+00
  0.00000000E+00  0.00000000E+00  0.00000000E+00
  0.00000000E+00  0.00000000E+00  0.00000000E+00
  0.00000000E+00  0.00000000E+00  0.00000000E+00
  0.00000000E+00  0.00000000E+00  0.00000000E+00
  0.00000000E+00  0.00000000E+00  0.00000000E+00
  0.00000000E+00  0.00000000E+00  0.00000000E+00
  0.00000000E+00  0.00000000E+00  0.00000000E+00
  0.00000000E+00  0.00000000E+00  0.00000000E+00
  0.00000000E+00  0.00000000E+00  0.00000000E+00
  0.00000000E+00  0.00000000E+00  0.00000000E+00
