Structure 1 made from -120-1.xsd file
1.0
        6.1690871197        1.1673387610        0.0000000000
        0.0000000000       11.2564630382        0.0000000000
        0.0000000000        0.0000000000       27.8914833038
   Ni    S
   48   48
Direct
     0.256309438     0.016458591     0.000000000
     0.256309438     0.016458591     0.343417017
     0.006309438     0.266458583     0.171708509
     0.006309438     0.266458583     0.515125526
     0.256309438     0.016458591     0.252684181
     0.256309438     0.016458591     0.596101198
     0.006309438     0.266458583     0.080975672
     0.006309438     0.266458583     0.424392689
     0.190257938     0.214613085     0.298050599
     0.190257938     0.214613085     0.641467616
     0.440257938     0.464613078     0.126342090
     0.440257938     0.464613078     0.469759108
     0.756309438     0.016458591     0.000000000
     0.756309438     0.016458591     0.343417017
     0.506309438     0.266458583     0.171708509
     0.506309438     0.266458583     0.515125526
     0.756309438     0.016458591     0.252684181
     0.756309438     0.016458591     0.596101198
     0.506309438     0.266458583     0.080975672
     0.506309438     0.266458583     0.424392689
     0.690257938     0.214613085     0.298050599
     0.690257938     0.214613085     0.641467616
     0.940257938     0.464613078     0.126342090
     0.940257938     0.464613078     0.469759108
     0.256309438     0.516458591     0.000000000
     0.256309438     0.516458591     0.343417017
     0.006309438     0.766458583     0.171708509
     0.006309438     0.766458583     0.515125526
     0.256309438     0.516458591     0.252684181
     0.256309438     0.516458591     0.596101198
     0.006309438     0.766458583     0.080975672
     0.006309438     0.766458583     0.424392689
     0.190257938     0.714613085     0.298050599
     0.190257938     0.714613085     0.641467616
     0.440257938     0.964613078     0.126342090
     0.440257938     0.964613078     0.469759108
     0.756309438     0.516458591     0.000000000
     0.756309438     0.516458591     0.343417017
     0.506309438     0.766458583     0.171708509
     0.506309438     0.766458583     0.515125526
     0.756309438     0.516458591     0.252684181
     0.756309438     0.516458591     0.596101198
     0.506309438     0.766458583     0.080975672
     0.506309438     0.766458583     0.424392689
     0.690257938     0.714613085     0.298050599
     0.690257938     0.714613085     0.641467616
     0.940257938     0.964613078     0.126342090
     0.940257938     0.964613078     0.469759108
     0.468404105     0.166617586     0.240282705
     0.468404105     0.166617586     0.583699723
     0.218404105     0.416617579     0.068574197
     0.218404105     0.416617579     0.411991214
     0.468404105     0.166617586     0.012401475
     0.468404105     0.166617586     0.355818492
     0.218404105     0.416617579     0.184109984
     0.218404105     0.416617579     0.527527001
     0.052511605     0.414295079     0.298050599
     0.052511605     0.414295079     0.641467616
     0.302511605     0.164295086     0.126342090
     0.302511605     0.164295086     0.469759108
     0.968404105     0.166617586     0.240282705
     0.968404105     0.166617586     0.583699723
     0.718404105     0.416617579     0.068574197
     0.718404105     0.416617579     0.411991214
     0.968404105     0.166617586     0.012401475
     0.968404105     0.166617586     0.355818492
     0.718404105     0.416617579     0.184109984
     0.718404105     0.416617579     0.527527001
     0.552511605     0.414295079     0.298050599
     0.552511605     0.414295079     0.641467616
     0.802511605     0.164295086     0.126342090
     0.802511605     0.164295086     0.469759108
     0.468404105     0.666617586     0.240282705
     0.468404105     0.666617586     0.583699723
     0.218404105     0.916617579     0.068574197
     0.218404105     0.916617579     0.411991214
     0.468404105     0.666617586     0.012401475
     0.468404105     0.666617586     0.355818492
     0.218404105     0.916617579     0.184109984
     0.218404105     0.916617579     0.527527001
     0.052511605     0.914295079     0.298050599
     0.052511605     0.914295079     0.641467616
     0.302511605     0.664295086     0.126342090
     0.302511605     0.664295086     0.469759108
     0.968404105     0.666617586     0.240282705
     0.968404105     0.666617586     0.583699723
     0.718404105     0.916617579     0.068574197
     0.718404105     0.916617579     0.411991214
     0.968404105     0.666617586     0.012401475
     0.968404105     0.666617586     0.355818492
     0.718404105     0.916617579     0.184109984
     0.718404105     0.916617579     0.527527001
     0.552511605     0.914295079     0.298050599
     0.552511605     0.914295079     0.641467616
     0.802511605     0.664295086     0.126342090
     0.802511605     0.664295086     0.469759108
