Structure 2 made from -112-10.xsd file  
   1.00000000000000     
    16.8846940542000006    0.0000000000000000    0.0000000000000000
     0.0000000000000000    9.5784099999999999    0.0000000000000000
     0.0000000000000000    0.0000000000000000   16.1690871196999986
   Ni   S 
    36    36
Direct
  0.7800463069999992  0.1452969540000026  0.1205849919999977
  0.2627623280000009  0.6452969540000026  0.0252010179999971
  0.2973302850000010  0.6452969540000026  0.2159689650000018
  0.4351903210000003  0.1452969540000026  0.0569956759999997
  0.4697582780000005  0.1452969540000026  0.2477636229999973
  0.9524742999999987  0.6452969540000026  0.1523796500000003
  0.9870422569999988  0.6452969540000026  0.3431475969999980
  0.1249022929999981  0.1452969540000026  0.1841743080000029
  0.1594702499999983  0.1452969540000026  0.3749422550000006
  0.6076183139999998  0.6452969540000026  0.0887903340000022
  0.6421862709999999  0.6452969540000026  0.2795582809999999
  0.9075827759999981  0.0131939540000019  0.0953839740000006
  0.3902987969999998  0.5131939540000019  0.0000000000000000
  0.4248667549999965  0.5131939540000019  0.1907679469999977
  0.4594347119999966  0.5131939540000019  0.3815358949999990
  0.5627267899999993  0.0131939540000019  0.0317946580000026
  0.5972947469999994  0.0131939540000019  0.2225626050000002
  0.0800107689999976  0.5131939540000019  0.1271786320000032
  0.1145787259999977  0.5131939540000019  0.3179465790000009
  0.2524387619999970  0.0131939540000019  0.1589732890000022
  0.2870067189999972  0.0131939540000019  0.3497412370000035
  0.7351547829999987  0.5131939540000019  0.0635893159999981
  0.7697227399999989  0.5131939540000019  0.2543572630000028
  0.9075827759999981  0.2773999540000034  0.0953839740000006
  0.9421507329999983  0.2773999540000034  0.2861519209999983
  0.3902987969999998  0.7773999540000034  0.0000000000000000
  0.4248667549999965  0.7773999540000034  0.1907679469999977
  0.4594347119999966  0.7773999540000034  0.3815358949999990
  0.5627267899999993  0.2773999540000034  0.0317946580000026
  0.5972947469999994  0.2773999540000034  0.2225626050000002
  0.0800107689999976  0.7773999540000034  0.1271786320000032
  0.1145787259999977  0.7773999540000034  0.3179465790000009
  0.2524387619999970  0.2773999540000034  0.1589732890000022
  0.2870067189999972  0.2773999540000034  0.3497412370000035
  0.7351547829999987  0.7773999540000034  0.0635893159999981
  0.7697227399999989  0.7773999540000034  0.2543572630000028
  0.0260291629999969  0.1452969540000026  0.3731776509999989
  0.9914612059999968  0.1452969540000026  0.1824097040000012
  0.4741772269999984  0.6452969540000026  0.0870257300000006
  0.5087451839999986  0.6452969540000026  0.2777936780000019
  0.6466052199999979  0.1452969540000026  0.1188203880000032
  0.6811731769999980  0.1452969540000026  0.3095883359999974
  0.1293212409999995  0.6452969540000026  0.0234364149999990
  0.1638891979999997  0.6452969540000026  0.2142043619999967
  0.3017492339999990  0.1452969540000026  0.0552310730000016
  0.3363171909999991  0.1452969540000026  0.2459990199999993
  0.8190332129999973  0.6452969540000026  0.1506150459999986
  0.8536011699999975  0.6452969540000026  0.3413829930000034
  0.7944930970000001  0.3135119539999991  0.0237317870000027
  0.8290610549999968  0.3135119539999991  0.2144997340000003
  0.3117770759999985  0.8135119539999991  0.1191157610000033
  0.3463450329999986  0.8135119539999991  0.3098837080000010
  0.4842050689999979  0.3135119539999991  0.1509104189999988
  0.5187730259999981  0.3135119539999991  0.3416783659999965
  0.0014890469999997  0.8135119539999991  0.2462943920000029
  0.9669210899999996  0.8135119539999991  0.0555264449999981
  0.1393490829999990  0.3135119539999991  0.0873211030000007
  0.1739170399999992  0.3135119539999991  0.2780890499999984
  0.6566330619999974  0.8135119539999991  0.1827050759999977
  0.6912010189999975  0.8135119539999991  0.3734730239999990
  0.3117770759999985  0.4770819539999991  0.1191157610000033
  0.3463450329999986  0.4770819539999991  0.3098837080000010
  0.7944930970000001  0.9770819539999991  0.0237317870000027
  0.8290610549999968  0.9770819539999991  0.2144997340000003
  0.0014890469999997  0.4770819539999991  0.2462943920000029
  0.9669210899999996  0.4770819539999991  0.0555264449999981
  0.4842050689999979  0.9770819539999991  0.1509104189999988
  0.5187730259999981  0.9770819539999991  0.3416783659999965
  0.6566330619999974  0.4770819539999991  0.1827050759999977
  0.6912010189999975  0.4770819539999991  0.3734730239999990
  0.1393490829999990  0.9770819539999991  0.0873211030000007
  0.1739170399999992  0.9770819539999991  0.2780890499999984
 
  0.00000000E+00  0.00000000E+00  0.00000000E+00
  0.00000000E+00  0.00000000E+00  0.00000000E+00
  0.00000000E+00  0.00000000E+00  0.00000000E+00
  0.00000000E+00  0.00000000E+00  0.00000000E+00
  0.00000000E+00  0.00000000E+00  0.00000000E+00
  0.00000000E+00  0.00000000E+00  0.00000000E+00
  0.00000000E+00  0.00000000E+00  0.00000000E+00
  0.00000000E+00  0.00000000E+00  0.00000000E+00
  0.00000000E+00  0.00000000E+00  0.00000000E+00
  0.00000000E+00  0.00000000E+00  0.00000000E+00
  0.00000000E+00  0.00000000E+00  0.00000000E+00
  0.00000000E+00  0.00000000E+00  0.00000000E+00
  0.00000000E+00  0.00000000E+00  0.00000000E+00
  0.00000000E+00  0.00000000E+00  0.00000000E+00
  0.00000000E+00  0.00000000E+00  0.00000000E+00
  0.00000000E+00  0.00000000E+00  0.00000000E+00
  0.00000000E+00  0.00000000E+00  0.00000000E+00
  0.00000000E+00  0.00000000E+00  0.00000000E+00
  0.00000000E+00  0.00000000E+00  0.00000000E+00
  0.00000000E+00  0.00000000E+00  0.00000000E+00
  0.00000000E+00  0.00000000E+00  0.00000000E+00
  0.00000000E+00  0.00000000E+00  0.00000000E+00
  0.00000000E+00  0.00000000E+00  0.00000000E+00
  0.00000000E+00  0.00000000E+00  0.00000000E+00
  0.00000000E+00  0.00000000E+00  0.00000000E+00
  0.00000000E+00  0.00000000E+00  0.00000000E+00
  0.00000000E+00  0.00000000E+00  0.00000000E+00
  0.00000000E+00  0.00000000E+00  0.00000000E+00
  0.00000000E+00  0.00000000E+00  0.00000000E+00
  0.00000000E+00  0.00000000E+00  0.00000000E+00
  0.00000000E+00  0.00000000E+00  0.00000000E+00
  0.00000000E+00  0.00000000E+00  0.00000000E+00
  0.00000000E+00  0.00000000E+00  0.00000000E+00
  0.00000000E+00  0.00000000E+00  0.00000000E+00
  0.00000000E+00  0.00000000E+00  0.00000000E+00
  0.00000000E+00  0.00000000E+00  0.00000000E+00
  0.00000000E+00  0.00000000E+00  0.00000000E+00
  0.00000000E+00  0.00000000E+00  0.00000000E+00
  0.00000000E+00  0.00000000E+00  0.00000000E+00
  0.00000000E+00  0.00000000E+00  0.00000000E+00
  0.00000000E+00  0.00000000E+00  0.00000000E+00
  0.00000000E+00  0.00000000E+00  0.00000000E+00
  0.00000000E+00  0.00000000E+00  0.00000000E+00
  0.00000000E+00  0.00000000E+00  0.00000000E+00
  0.00000000E+00  0.00000000E+00  0.00000000E+00
  0.00000000E+00  0.00000000E+00  0.00000000E+00
  0.00000000E+00  0.00000000E+00  0.00000000E+00
  0.00000000E+00  0.00000000E+00  0.00000000E+00
  0.00000000E+00  0.00000000E+00  0.00000000E+00
  0.00000000E+00  0.00000000E+00  0.00000000E+00
  0.00000000E+00  0.00000000E+00  0.00000000E+00
  0.00000000E+00  0.00000000E+00  0.00000000E+00
  0.00000000E+00  0.00000000E+00  0.00000000E+00
  0.00000000E+00  0.00000000E+00  0.00000000E+00
  0.00000000E+00  0.00000000E+00  0.00000000E+00
  0.00000000E+00  0.00000000E+00  0.00000000E+00
  0.00000000E+00  0.00000000E+00  0.00000000E+00
  0.00000000E+00  0.00000000E+00  0.00000000E+00
  0.00000000E+00  0.00000000E+00  0.00000000E+00
  0.00000000E+00  0.00000000E+00  0.00000000E+00
  0.00000000E+00  0.00000000E+00  0.00000000E+00
  0.00000000E+00  0.00000000E+00  0.00000000E+00
  0.00000000E+00  0.00000000E+00  0.00000000E+00
  0.00000000E+00  0.00000000E+00  0.00000000E+00
  0.00000000E+00  0.00000000E+00  0.00000000E+00
  0.00000000E+00  0.00000000E+00  0.00000000E+00
  0.00000000E+00  0.00000000E+00  0.00000000E+00
  0.00000000E+00  0.00000000E+00  0.00000000E+00
  0.00000000E+00  0.00000000E+00  0.00000000E+00
  0.00000000E+00  0.00000000E+00  0.00000000E+00
  0.00000000E+00  0.00000000E+00  0.00000000E+00
  0.00000000E+00  0.00000000E+00  0.00000000E+00
