Structure 1 made from -112-1.xsd file   
   1.00000000000000     
    16.8846940542000006    0.0000000000000000    0.0000000000000000
     0.0000000000000000    9.5784099999999999    0.0000000000000000
     0.0000000000000000    0.0000000000000000   16.1643112180999999
   Ni   S 
    36    36
Direct
  0.7800463049999991  0.1452969569999993  0.0968818209999966
  0.8146142619999992  0.1452969569999993  0.2877061330000004
  0.2627623260000007  0.6452969569999993  0.0014696650000019
  0.2973302839999974  0.6452969569999993  0.1922939769999985
  0.4351903190000002  0.1452969569999993  0.0332737170000001
  0.4697582760000003  0.1452969569999993  0.2240980289999968
  0.9524742979999985  0.6452969569999993  0.1286858730000020
  0.9870422549999986  0.6452969569999993  0.3195101840000021
  0.1249022909999979  0.1452969569999993  0.1604899250000003
  0.1594702479999981  0.1452969569999993  0.3513142360000003
  0.6076183119999996  0.6452969569999993  0.0650777689999984
  0.6421862689999998  0.6452969569999993  0.2559020810000021
  0.9075827739999980  0.0131939569999986  0.0716733570000017
  0.9421507309999981  0.0131939569999986  0.2624976689999983
  0.4248667530000034  0.5131939569999986  0.1670855130000035
  0.4594347099999965  0.5131939569999986  0.3579098239999965
  0.5627267879999991  0.0131939569999986  0.0080652529999981
  0.5972947460000029  0.0131939569999986  0.1988895650000018
  0.0800107669999974  0.5131939569999986  0.1034774089999999
  0.1145787239999976  0.5131939569999986  0.2943017200000000
  0.2524387599999969  0.0131939569999986  0.1352814609999982
  0.2870067169999970  0.0131939569999986  0.3261057719999982
  0.7351547809999985  0.5131939569999986  0.0398693050000034
  0.7697227379999987  0.5131939569999986  0.2306936170000000
  0.9075827739999980  0.2773999570000001  0.0716733570000017
  0.9421507309999981  0.2773999570000001  0.2624976689999983
  0.4248667530000034  0.7773999570000001  0.1670855130000035
  0.4594347099999965  0.7773999570000001  0.3579098239999965
  0.5627267879999991  0.2773999570000001  0.0080652529999981
  0.5972947460000029  0.2773999570000001  0.1988895650000018
  0.0800107669999974  0.7773999570000001  0.1034774089999999
  0.1145787239999976  0.7773999570000001  0.2943017200000000
  0.2524387599999969  0.2773999570000001  0.1352814609999982
  0.2870067169999970  0.2773999570000001  0.3261057719999982
  0.7351547809999985  0.7773999570000001  0.0398693050000034
  0.7697227379999987  0.7773999570000001  0.2306936170000000
  0.0260291609999967  0.1452969569999993  0.3495491119999983
  0.9914612039999966  0.1452969569999993  0.1587248000000017
  0.4741772249999983  0.6452969569999993  0.0633126439999998
  0.5087451819999984  0.6452969569999993  0.2541369560000035
  0.6466052179999977  0.1452969569999993  0.0951166959999981
  0.6811731749999979  0.1452969569999993  0.2859410080000018
  0.1638891970000032  0.6452969569999993  0.1905288519999999
  0.1984571540000033  0.6452969569999993  0.3813531630000000
  0.3017492319999988  0.1452969569999993  0.0315085920000016
  0.3363171889999990  0.1452969569999993  0.2223329039999982
  0.8190332109999972  0.6452969569999993  0.1269207480000034
  0.8536011679999973  0.6452969569999993  0.3177450600000000
  0.7944930959999965  0.3135119570000029  0.0000000000000000
  0.8290610529999967  0.3135119570000029  0.1908243119999966
  0.3117770739999983  0.8135119570000029  0.0954121560000019
  0.3463450309999985  0.8135119570000029  0.2862364670000019
  0.4842050669999978  0.3135119570000029  0.1272162080000001
  0.5187730239999979  0.3135119570000029  0.3180405190000002
  0.0014890460000032  0.8135119570000029  0.2226283629999983
  0.9669210879999994  0.8135119570000029  0.0318040519999983
  0.1393490809999989  0.3135119570000029  0.0636081039999965
  0.1739170379999990  0.3135119570000029  0.2544324149999966
  0.6566330599999972  0.8135119570000029  0.1590202599999984
  0.6912010169999974  0.8135119570000029  0.3498445709999984
  0.3117770739999983  0.4770819570000029  0.0954121560000019
  0.3463450309999985  0.4770819570000029  0.2862364670000019
  0.7944930959999965  0.9770819570000029  0.0000000000000000
  0.8290610529999967  0.9770819570000029  0.1908243119999966
  0.0014890460000032  0.4770819570000029  0.2226283629999983
  0.9669210879999994  0.4770819570000029  0.0318040519999983
  0.4842050669999978  0.9770819570000029  0.1272162080000001
  0.5187730239999979  0.9770819570000029  0.3180405190000002
  0.6566330599999972  0.4770819570000029  0.1590202599999984
  0.6912010169999974  0.4770819570000029  0.3498445709999984
  0.1393490809999989  0.9770819570000029  0.0636081039999965
  0.1739170379999990  0.9770819570000029  0.2544324149999966
 
  0.00000000E+00  0.00000000E+00  0.00000000E+00
  0.00000000E+00  0.00000000E+00  0.00000000E+00
  0.00000000E+00  0.00000000E+00  0.00000000E+00
  0.00000000E+00  0.00000000E+00  0.00000000E+00
  0.00000000E+00  0.00000000E+00  0.00000000E+00
  0.00000000E+00  0.00000000E+00  0.00000000E+00
  0.00000000E+00  0.00000000E+00  0.00000000E+00
  0.00000000E+00  0.00000000E+00  0.00000000E+00
  0.00000000E+00  0.00000000E+00  0.00000000E+00
  0.00000000E+00  0.00000000E+00  0.00000000E+00
  0.00000000E+00  0.00000000E+00  0.00000000E+00
  0.00000000E+00  0.00000000E+00  0.00000000E+00
  0.00000000E+00  0.00000000E+00  0.00000000E+00
  0.00000000E+00  0.00000000E+00  0.00000000E+00
  0.00000000E+00  0.00000000E+00  0.00000000E+00
  0.00000000E+00  0.00000000E+00  0.00000000E+00
  0.00000000E+00  0.00000000E+00  0.00000000E+00
  0.00000000E+00  0.00000000E+00  0.00000000E+00
  0.00000000E+00  0.00000000E+00  0.00000000E+00
  0.00000000E+00  0.00000000E+00  0.00000000E+00
  0.00000000E+00  0.00000000E+00  0.00000000E+00
  0.00000000E+00  0.00000000E+00  0.00000000E+00
  0.00000000E+00  0.00000000E+00  0.00000000E+00
  0.00000000E+00  0.00000000E+00  0.00000000E+00
  0.00000000E+00  0.00000000E+00  0.00000000E+00
  0.00000000E+00  0.00000000E+00  0.00000000E+00
  0.00000000E+00  0.00000000E+00  0.00000000E+00
  0.00000000E+00  0.00000000E+00  0.00000000E+00
  0.00000000E+00  0.00000000E+00  0.00000000E+00
  0.00000000E+00  0.00000000E+00  0.00000000E+00
  0.00000000E+00  0.00000000E+00  0.00000000E+00
  0.00000000E+00  0.00000000E+00  0.00000000E+00
  0.00000000E+00  0.00000000E+00  0.00000000E+00
  0.00000000E+00  0.00000000E+00  0.00000000E+00
  0.00000000E+00  0.00000000E+00  0.00000000E+00
  0.00000000E+00  0.00000000E+00  0.00000000E+00
  0.00000000E+00  0.00000000E+00  0.00000000E+00
  0.00000000E+00  0.00000000E+00  0.00000000E+00
  0.00000000E+00  0.00000000E+00  0.00000000E+00
  0.00000000E+00  0.00000000E+00  0.00000000E+00
  0.00000000E+00  0.00000000E+00  0.00000000E+00
  0.00000000E+00  0.00000000E+00  0.00000000E+00
  0.00000000E+00  0.00000000E+00  0.00000000E+00
  0.00000000E+00  0.00000000E+00  0.00000000E+00
  0.00000000E+00  0.00000000E+00  0.00000000E+00
  0.00000000E+00  0.00000000E+00  0.00000000E+00
  0.00000000E+00  0.00000000E+00  0.00000000E+00
  0.00000000E+00  0.00000000E+00  0.00000000E+00
  0.00000000E+00  0.00000000E+00  0.00000000E+00
  0.00000000E+00  0.00000000E+00  0.00000000E+00
  0.00000000E+00  0.00000000E+00  0.00000000E+00
  0.00000000E+00  0.00000000E+00  0.00000000E+00
  0.00000000E+00  0.00000000E+00  0.00000000E+00
  0.00000000E+00  0.00000000E+00  0.00000000E+00
  0.00000000E+00  0.00000000E+00  0.00000000E+00
  0.00000000E+00  0.00000000E+00  0.00000000E+00
  0.00000000E+00  0.00000000E+00  0.00000000E+00
  0.00000000E+00  0.00000000E+00  0.00000000E+00
  0.00000000E+00  0.00000000E+00  0.00000000E+00
  0.00000000E+00  0.00000000E+00  0.00000000E+00
  0.00000000E+00  0.00000000E+00  0.00000000E+00
  0.00000000E+00  0.00000000E+00  0.00000000E+00
  0.00000000E+00  0.00000000E+00  0.00000000E+00
  0.00000000E+00  0.00000000E+00  0.00000000E+00
  0.00000000E+00  0.00000000E+00  0.00000000E+00
  0.00000000E+00  0.00000000E+00  0.00000000E+00
  0.00000000E+00  0.00000000E+00  0.00000000E+00
  0.00000000E+00  0.00000000E+00  0.00000000E+00
  0.00000000E+00  0.00000000E+00  0.00000000E+00
  0.00000000E+00  0.00000000E+00  0.00000000E+00
  0.00000000E+00  0.00000000E+00  0.00000000E+00
  0.00000000E+00  0.00000000E+00  0.00000000E+00
