Structure 1 made from -112-1.xsd file
1.0
       16.8846940542        0.0000000000        0.0000000000
        0.0000000000        9.5784100000        0.0000000000
        0.0000000000        0.0000000000       16.1643112181
   Ni    S
   36   36
Direct
     0.780046305     0.145296957     0.096881821
     0.814614262     0.145296957     0.287706133
     0.262762326     0.645296957     0.001469665
     0.297330284     0.645296957     0.192293977
     0.435190319     0.145296957     0.033273717
     0.469758276     0.145296957     0.224098029
     0.952474298     0.645296957     0.128685873
     0.987042255     0.645296957     0.319510184
     0.124902291     0.145296957     0.160489925
     0.159470248     0.145296957     0.351314236
     0.607618312     0.645296957     0.065077769
     0.642186269     0.645296957     0.255902081
     0.907582774     0.013193957     0.071673357
     0.942150731     0.013193957     0.262497669
     0.424866753     0.513193957     0.167085513
     0.459434710     0.513193957     0.357909824
     0.562726788     0.013193957     0.008065253
     0.597294746     0.013193957     0.198889565
     0.080010767     0.513193957     0.103477409
     0.114578724     0.513193957     0.294301720
     0.252438760     0.013193957     0.135281461
     0.287006717     0.013193957     0.326105772
     0.735154781     0.513193957     0.039869305
     0.769722738     0.513193957     0.230693617
     0.907582774     0.277399957     0.071673357
     0.942150731     0.277399957     0.262497669
     0.424866753     0.777399957     0.167085513
     0.459434710     0.777399957     0.357909824
     0.562726788     0.277399957     0.008065253
     0.597294746     0.277399957     0.198889565
     0.080010767     0.777399957     0.103477409
     0.114578724     0.777399957     0.294301720
     0.252438760     0.277399957     0.135281461
     0.287006717     0.277399957     0.326105772
     0.735154781     0.777399957     0.039869305
     0.769722738     0.777399957     0.230693617
     0.026029161     0.145296957     0.349549112
     0.991461204     0.145296957     0.158724800
     0.474177225     0.645296957     0.063312644
     0.508745182     0.645296957     0.254136956
     0.646605218     0.145296957     0.095116696
     0.681173175     0.145296957     0.285941008
     0.163889197     0.645296957     0.190528852
     0.198457154     0.645296957     0.381353163
     0.301749232     0.145296957     0.031508592
     0.336317189     0.145296957     0.222332904
     0.819033211     0.645296957     0.126920748
     0.853601168     0.645296957     0.317745060
     0.794493096     0.313511957     0.000000000
     0.829061053     0.313511957     0.190824312
     0.311777074     0.813511957     0.095412156
     0.346345031     0.813511957     0.286236467
     0.484205067     0.313511957     0.127216208
     0.518773024     0.313511957     0.318040519
     0.001489046     0.813511957     0.222628363
     0.966921088     0.813511957     0.031804052
     0.139349081     0.313511957     0.063608104
     0.173917038     0.313511957     0.254432415
     0.656633060     0.813511957     0.159020260
     0.691201017     0.813511957     0.349844571
     0.311777074     0.477081957     0.095412156
     0.346345031     0.477081957     0.286236467
     0.794493096     0.977081957     0.000000000
     0.829061053     0.977081957     0.190824312
     0.001489046     0.477081957     0.222628363
     0.966921088     0.477081957     0.031804052
     0.484205067     0.977081957     0.127216208
     0.518773024     0.977081957     0.318040519
     0.656633060     0.477081957     0.159020260
     0.691201017     0.477081957     0.349844571
     0.139349081     0.977081957     0.063608104
     0.173917038     0.977081957     0.254432415
