Type_048 Type_148 
1.0
1.1256463038200000e+01 0.0000000000000000e+00 0.0000000000000000e+00 
5.0445621212000002e+00 1.0062820337100000e+01 0.0000000000000000e+00 
0.0000000000000000e+00 0.0000000000000000e+00 2.2519955973199998e+01 
Type_0 Type_1 
48 48 
Cartesian
   5.3522814431    4.8178808643    6.6478400406
   5.9359508271    3.8723796038    9.5838980147
   2.2463310804    0.7319720972    3.7117820891
   5.0613265112    5.2740849598    1.3338818443
   4.7686120570    3.3545317851    2.9360579516
   5.3522814460    2.4090305347    5.8721159257
   5.9359508187    1.4635292742    8.8081738772
   1.8774643571    3.7383592494    5.8721159257
   2.4611337299    2.7928579889    8.8081738772
   6.9220263184    4.6838604999    2.9360579516
   3.7722434469    0.5284103190    0.7653022242
  10.9805129622    4.8178808643    6.6478400406
  11.5641823462    3.8723796038    9.5838980147
  11.7234145960    3.6144350548   11.9242605510
   7.8745625995    0.7319720972    3.7117820891
   6.1947794095    0.6474924928   11.0836136172
  10.3968435761    3.3545317851    2.9360579516
  10.9805129651    2.4090305347    5.8721159257
  11.5641823378    1.4635292742    8.8081738772
   7.5056958763    3.7383592494    5.8721159257
   8.0893652490    2.7928579889    8.8081738772
   9.1250764175    2.1485508128   10.8692637365
  12.5502578375    4.6838604999    2.9360579516
   8.1807948248    0.2510196299    1.3338819056
   7.8745625037    9.8492910329    6.6478400406
   8.4582318877    8.9037897724    9.5838980147
   9.6156512652    7.0288559737   11.3569727615
   4.7686121410    5.7633822657    3.7117820891
   2.9418331293    5.2803105851   10.8692636677
   6.7890350474    9.3394647243    0.7653025195
   7.2908931175    8.3859419536    2.9360579516
   7.8745625066    7.4404407032    5.8721159257
   8.4582318793    6.4949394427    8.8081738772
   4.3997454177    8.7697694179    5.8721159257
   4.9834147905    7.8242681574    8.8081738772
   5.5969248959    7.2271807965   11.0836137082
   9.4443073790    9.7152706684    2.9360579516
  13.5027940228    9.8492910329    6.6478400406
  14.0864634068    8.9037897724    9.5838980147
  10.3968436601    5.7633822657    3.7117820891
   8.4838006592    4.9734594989   10.5675105989
  12.9191246367    8.3859419536    2.9360579516
  13.5027940257    7.4404407032    5.8721159257
  14.0864633984    6.4949394427    8.8081738772
  10.0279769369    8.7697694179    5.8721159257
  10.6116463096    7.8242681574    8.8081738772
  11.9603288155    7.1195628935   10.5675107993
  15.0725388981    9.7152706684    2.9360579516
   1.6618956013    1.6787143752    7.0115334562
   2.2665063027    0.6992894825    9.3500359095
   6.1261823714    3.5735248852    1.3929508960
   6.7064575738    2.6242156256    4.0754755046
   2.1009521541    3.4469030022   10.7538266084
   7.2901269524    4.7460539320    7.9993114444
   3.6798089640    1.6038802075    2.4537114654
   4.1841765897    0.6601451649    5.0632534928
   3.3622084875    4.8522134578    2.4180631956
   3.9643807089    3.9988379098    5.0632534928
   4.5480500867    3.0533366593    7.9993114444
   5.0070795481    2.1828766449   10.5026693278
   7.2901271205    1.6787143752    7.0115334562
   7.8737965044    0.7332131147    9.9475914303
  11.5238657511    3.9376895036    1.4036491549
  12.3346890930    2.6242156256    4.0754755046
   7.4276844479    3.2814015114   10.8947379175
  12.9183584715    4.7460539320    7.9993114444
   9.3193873392    1.5809010503    2.4180630536
   9.8124081088    0.6601451649    5.0632534928
   8.9794269922    4.8266233102    2.5372879138
   9.5926122281    3.9988379098    5.0632534928
  10.1762816058    3.0533366593    7.9993114444
  11.1409074164    2.0786257340   10.7538266455
   4.1841766619    6.7101245437    7.0115334562
   4.7678460459    5.7646232832    9.9475914303
   8.6094224428    8.6588724258    1.3031708122
   9.2287386344    7.6556257942    4.0754755046
   4.7566192119    8.9770155291   10.5026692817
   9.8124080130    9.7774641005    7.9993114444
   6.2099904190    6.6072088254    2.4041890159
   6.7064576503    5.6915553334    5.0632534928
   5.8690323566    9.9040653391    2.4537120424
   6.4866617695    9.0302480783    5.0632534928
   7.0703311473    8.0847468279    7.9993114444
   7.6540005313    7.1392455673   10.9353693959
   9.8124081810    6.7101245437    7.0115334562
  10.3960775650    5.7646232832    9.9475914303
  14.2683754665    8.5997992343    1.3929509034
  14.8569701535    7.6556257942    4.0754755046
  10.3960775546    8.8319628400   10.9353693959
  15.4406395321    9.7774641005    7.9993114444
  11.8694805697    6.6106884135    2.5372876905
  12.3346891694    5.6915553334    5.0632534928
  11.5188271779    9.8844180715    2.4041891772
  12.1148932887    9.0302480783    5.0632534928
  12.6985626664    8.0847468279    7.9993114444
  13.9462563940    7.3053948207   10.8947378994
