Structure 1 made from -111-3.xsd file   
   1.00000000000000     
    10.0628203370999998    5.0445621212000002    0.0000000000000000
     0.0000000000000000   11.2564630381999997    0.0000000000000000
     0.0000000000000000    0.0000000000000000   20.9685077140000011
   Ni   S 
    48    48
Direct
  0.2609206970000031  0.4787803580000016  0.2800445319999980
  0.3548805630000018  0.3848204920000029  0.4200667969999969
  0.0730009640000020  0.1667001060000004  0.0000000000000000
  0.1669608300000007  0.0727402400000017  0.1400222660000026
  0.0561186799999973  0.0514793939999976  0.5230943409999966
  0.2742390659999998  0.3333589929999974  0.1030275430000032
  0.3681989330000022  0.2393991269999987  0.2430498089999986
  0.4621587990000009  0.1454392600000034  0.3830720750000012
  0.0003019429999966  0.3715021229999991  0.2430498089999986
  0.0942618099999990  0.2775422559999967  0.3830720750000012
  0.1882216759999977  0.1835823899999980  0.5230943409999966
  0.4063420620000002  0.4654619889999978  0.1030275430000032
  0.7609206970000031  0.4787803580000016  0.2800445319999980
  0.8548805630000018  0.3848204920000029  0.4200667969999969
  0.5730009640000020  0.1667001060000004  0.0000000000000000
  0.6669608300000007  0.0727402400000017  0.1400222660000026
  0.5561186799999973  0.0514793939999976  0.5230943409999966
  0.7742390659999998  0.3333589929999974  0.1030275430000032
  0.8681989330000022  0.2393991269999987  0.2430498089999986
  0.9621587990000009  0.1454392600000034  0.3830720750000012
  0.5003019429999966  0.3715021229999991  0.2430498089999986
  0.5942618099999990  0.2775422559999967  0.3830720750000012
  0.6882216759999977  0.1835823899999980  0.5230943409999966
  0.9063420620000002  0.4654619889999978  0.1030275430000032
  0.2609206970000031  0.9787803580000016  0.2800445319999980
  0.3548805630000018  0.8848204920000029  0.4200667969999969
  0.0730009640000020  0.6667001060000004  0.0000000000000000
  0.1669608300000007  0.5727402400000017  0.1400222660000026
  0.0561186799999973  0.5514793939999976  0.5230943409999966
  0.2742390659999998  0.8333589929999974  0.1030275430000032
  0.3681989330000022  0.7393991269999987  0.2430498089999986
  0.4621587990000009  0.6454392600000034  0.3830720750000012
  0.0003019429999966  0.8715021229999991  0.2430498089999986
  0.0942618099999990  0.7775422559999967  0.3830720750000012
  0.1882216759999977  0.6835823899999980  0.5230943409999966
  0.4063420620000002  0.9654619889999978  0.1030275430000032
  0.7609206970000031  0.9787803580000016  0.2800445319999980
  0.8548805630000018  0.8848204920000029  0.4200667969999969
  0.5730009640000020  0.6667001060000004  0.0000000000000000
  0.6669608300000007  0.5727402400000017  0.1400222660000026
  0.5561186799999973  0.5514793939999976  0.5230943409999966
  0.7742390659999998  0.8333589929999974  0.1030275430000032
  0.8681989330000022  0.7393991269999987  0.2430498089999986
  0.9621587990000009  0.6454392600000034  0.3830720750000012
  0.5003019429999966  0.8715021229999991  0.2430498089999986
  0.5942618099999990  0.7775422559999967  0.3830720750000012
  0.6882216759999977  0.6835823899999980  0.5230943409999966
  0.9063420620000002  0.9654619889999978  0.1030275430000032
  0.0728776369999977  0.1668234329999976  0.2973892759999970
  0.1668375029999964  0.0728635669999989  0.4374115419999995
  0.3849578889999989  0.3547431659999987  0.0173447450000026
  0.4789177549999977  0.2607832999999999  0.1573670109999981
  0.0302334260000023  0.3776826389999997  0.4845192330000003
  0.4362735449999988  0.4716425049999984  0.3444969669999978
  0.2483538119999977  0.1595622529999972  0.0644524360000034
  0.3423136779999965  0.0656023869999984  0.2044747010000023
  0.0801388169999981  0.4913472429999999  0.0644524360000034
  0.1740986829999969  0.3973873770000012  0.2044747010000023
  0.2680585499999992  0.3034275110000024  0.3444969669999978
  0.3620184159999980  0.2094676440000001  0.4845192330000003
  0.5728776369999977  0.1668234329999976  0.2973892759999970
  0.6668375029999964  0.0728635669999989  0.4374115419999995
  0.8849578889999989  0.3547431659999987  0.0173447450000026
  0.9789177549999977  0.2607832999999999  0.1573670109999981
  0.5302334260000023  0.3776826389999997  0.4845192330000003
  0.9362735449999988  0.4716425049999984  0.3444969669999978
  0.7483538119999977  0.1595622529999972  0.0644524360000034
  0.8423136779999965  0.0656023869999984  0.2044747010000023
  0.5801388169999981  0.4913472429999999  0.0644524360000034
  0.6740986829999969  0.3973873770000012  0.2044747010000023
  0.7680585499999992  0.3034275110000024  0.3444969669999978
  0.8620184159999980  0.2094676440000001  0.4845192330000003
  0.0728776369999977  0.6668234329999976  0.2973892759999970
  0.1668375029999964  0.5728635669999989  0.4374115419999995
  0.3849578889999989  0.8547431659999987  0.0173447450000026
  0.4789177549999977  0.7607832999999999  0.1573670109999981
  0.0302334260000023  0.8776826389999997  0.4845192330000003
  0.4362735449999988  0.9716425049999984  0.3444969669999978
  0.2483538119999977  0.6595622529999972  0.0644524360000034
  0.3423136779999965  0.5656023869999984  0.2044747010000023
  0.0801388169999981  0.9913472429999999  0.0644524360000034
  0.1740986829999969  0.8973873770000012  0.2044747010000023
  0.2680585499999992  0.8034275110000024  0.3444969669999978
  0.3620184159999980  0.7094676440000001  0.4845192330000003
  0.5728776369999977  0.6668234329999976  0.2973892759999970
  0.6668375029999964  0.5728635669999989  0.4374115419999995
  0.8849578889999989  0.8547431659999987  0.0173447450000026
  0.9789177549999977  0.7607832999999999  0.1573670109999981
  0.5302334260000023  0.8776826389999997  0.4845192330000003
  0.9362735449999988  0.9716425049999984  0.3444969669999978
  0.7483538119999977  0.6595622529999972  0.0644524360000034
  0.8423136779999965  0.5656023869999984  0.2044747010000023
  0.5801388169999981  0.9913472429999999  0.0644524360000034
  0.6740986829999969  0.8973873770000012  0.2044747010000023
  0.7680585499999992  0.8034275110000024  0.3444969669999978
  0.8620184159999980  0.7094676440000001  0.4845192330000003
 
  0.00000000E+00  0.00000000E+00  0.00000000E+00
  0.00000000E+00  0.00000000E+00  0.00000000E+00
  0.00000000E+00  0.00000000E+00  0.00000000E+00
  0.00000000E+00  0.00000000E+00  0.00000000E+00
  0.00000000E+00  0.00000000E+00  0.00000000E+00
  0.00000000E+00  0.00000000E+00  0.00000000E+00
  0.00000000E+00  0.00000000E+00  0.00000000E+00
  0.00000000E+00  0.00000000E+00  0.00000000E+00
  0.00000000E+00  0.00000000E+00  0.00000000E+00
  0.00000000E+00  0.00000000E+00  0.00000000E+00
  0.00000000E+00  0.00000000E+00  0.00000000E+00
  0.00000000E+00  0.00000000E+00  0.00000000E+00
  0.00000000E+00  0.00000000E+00  0.00000000E+00
  0.00000000E+00  0.00000000E+00  0.00000000E+00
  0.00000000E+00  0.00000000E+00  0.00000000E+00
  0.00000000E+00  0.00000000E+00  0.00000000E+00
  0.00000000E+00  0.00000000E+00  0.00000000E+00
  0.00000000E+00  0.00000000E+00  0.00000000E+00
  0.00000000E+00  0.00000000E+00  0.00000000E+00
  0.00000000E+00  0.00000000E+00  0.00000000E+00
  0.00000000E+00  0.00000000E+00  0.00000000E+00
  0.00000000E+00  0.00000000E+00  0.00000000E+00
  0.00000000E+00  0.00000000E+00  0.00000000E+00
  0.00000000E+00  0.00000000E+00  0.00000000E+00
  0.00000000E+00  0.00000000E+00  0.00000000E+00
  0.00000000E+00  0.00000000E+00  0.00000000E+00
  0.00000000E+00  0.00000000E+00  0.00000000E+00
  0.00000000E+00  0.00000000E+00  0.00000000E+00
  0.00000000E+00  0.00000000E+00  0.00000000E+00
  0.00000000E+00  0.00000000E+00  0.00000000E+00
  0.00000000E+00  0.00000000E+00  0.00000000E+00
  0.00000000E+00  0.00000000E+00  0.00000000E+00
  0.00000000E+00  0.00000000E+00  0.00000000E+00
  0.00000000E+00  0.00000000E+00  0.00000000E+00
  0.00000000E+00  0.00000000E+00  0.00000000E+00
  0.00000000E+00  0.00000000E+00  0.00000000E+00
  0.00000000E+00  0.00000000E+00  0.00000000E+00
  0.00000000E+00  0.00000000E+00  0.00000000E+00
  0.00000000E+00  0.00000000E+00  0.00000000E+00
  0.00000000E+00  0.00000000E+00  0.00000000E+00
  0.00000000E+00  0.00000000E+00  0.00000000E+00
  0.00000000E+00  0.00000000E+00  0.00000000E+00
  0.00000000E+00  0.00000000E+00  0.00000000E+00
  0.00000000E+00  0.00000000E+00  0.00000000E+00
  0.00000000E+00  0.00000000E+00  0.00000000E+00
  0.00000000E+00  0.00000000E+00  0.00000000E+00
  0.00000000E+00  0.00000000E+00  0.00000000E+00
  0.00000000E+00  0.00000000E+00  0.00000000E+00
  0.00000000E+00  0.00000000E+00  0.00000000E+00
  0.00000000E+00  0.00000000E+00  0.00000000E+00
  0.00000000E+00  0.00000000E+00  0.00000000E+00
  0.00000000E+00  0.00000000E+00  0.00000000E+00
  0.00000000E+00  0.00000000E+00  0.00000000E+00
  0.00000000E+00  0.00000000E+00  0.00000000E+00
  0.00000000E+00  0.00000000E+00  0.00000000E+00
  0.00000000E+00  0.00000000E+00  0.00000000E+00
  0.00000000E+00  0.00000000E+00  0.00000000E+00
  0.00000000E+00  0.00000000E+00  0.00000000E+00
  0.00000000E+00  0.00000000E+00  0.00000000E+00
  0.00000000E+00  0.00000000E+00  0.00000000E+00
  0.00000000E+00  0.00000000E+00  0.00000000E+00
  0.00000000E+00  0.00000000E+00  0.00000000E+00
  0.00000000E+00  0.00000000E+00  0.00000000E+00
  0.00000000E+00  0.00000000E+00  0.00000000E+00
  0.00000000E+00  0.00000000E+00  0.00000000E+00
  0.00000000E+00  0.00000000E+00  0.00000000E+00
  0.00000000E+00  0.00000000E+00  0.00000000E+00
  0.00000000E+00  0.00000000E+00  0.00000000E+00
  0.00000000E+00  0.00000000E+00  0.00000000E+00
  0.00000000E+00  0.00000000E+00  0.00000000E+00
  0.00000000E+00  0.00000000E+00  0.00000000E+00
  0.00000000E+00  0.00000000E+00  0.00000000E+00
  0.00000000E+00  0.00000000E+00  0.00000000E+00
  0.00000000E+00  0.00000000E+00  0.00000000E+00
  0.00000000E+00  0.00000000E+00  0.00000000E+00
  0.00000000E+00  0.00000000E+00  0.00000000E+00
  0.00000000E+00  0.00000000E+00  0.00000000E+00
  0.00000000E+00  0.00000000E+00  0.00000000E+00
  0.00000000E+00  0.00000000E+00  0.00000000E+00
  0.00000000E+00  0.00000000E+00  0.00000000E+00
  0.00000000E+00  0.00000000E+00  0.00000000E+00
  0.00000000E+00  0.00000000E+00  0.00000000E+00
  0.00000000E+00  0.00000000E+00  0.00000000E+00
  0.00000000E+00  0.00000000E+00  0.00000000E+00
  0.00000000E+00  0.00000000E+00  0.00000000E+00
  0.00000000E+00  0.00000000E+00  0.00000000E+00
  0.00000000E+00  0.00000000E+00  0.00000000E+00
  0.00000000E+00  0.00000000E+00  0.00000000E+00
  0.00000000E+00  0.00000000E+00  0.00000000E+00
  0.00000000E+00  0.00000000E+00  0.00000000E+00
  0.00000000E+00  0.00000000E+00  0.00000000E+00
  0.00000000E+00  0.00000000E+00  0.00000000E+00
  0.00000000E+00  0.00000000E+00  0.00000000E+00
  0.00000000E+00  0.00000000E+00  0.00000000E+00
  0.00000000E+00  0.00000000E+00  0.00000000E+00
  0.00000000E+00  0.00000000E+00  0.00000000E+00
