Structure 1 made from -111-3.xsd file
1.0
       10.0628203371        5.0445621212        0.0000000000
        0.0000000000       11.2564630382        0.0000000000
        0.0000000000        0.0000000000       20.9685077140
   Ni    S
   48   48
Direct
     0.260920697     0.478780358     0.280044532
     0.354880563     0.384820492     0.420066797
     0.073000964     0.166700106     0.000000000
     0.166960830     0.072740240     0.140022266
     0.056118680     0.051479394     0.523094341
     0.274239066     0.333358993     0.103027543
     0.368198933     0.239399127     0.243049809
     0.462158799     0.145439260     0.383072075
     0.000301943     0.371502123     0.243049809
     0.094261810     0.277542256     0.383072075
     0.188221676     0.183582390     0.523094341
     0.406342062     0.465461989     0.103027543
     0.760920697     0.478780358     0.280044532
     0.854880563     0.384820492     0.420066797
     0.573000964     0.166700106     0.000000000
     0.666960830     0.072740240     0.140022266
     0.556118680     0.051479394     0.523094341
     0.774239066     0.333358993     0.103027543
     0.868198933     0.239399127     0.243049809
     0.962158799     0.145439260     0.383072075
     0.500301943     0.371502123     0.243049809
     0.594261810     0.277542256     0.383072075
     0.688221676     0.183582390     0.523094341
     0.906342062     0.465461989     0.103027543
     0.260920697     0.978780358     0.280044532
     0.354880563     0.884820492     0.420066797
     0.073000964     0.666700106     0.000000000
     0.166960830     0.572740240     0.140022266
     0.056118680     0.551479394     0.523094341
     0.274239066     0.833358993     0.103027543
     0.368198933     0.739399127     0.243049809
     0.462158799     0.645439260     0.383072075
     0.000301943     0.871502123     0.243049809
     0.094261810     0.777542256     0.383072075
     0.188221676     0.683582390     0.523094341
     0.406342062     0.965461989     0.103027543
     0.760920697     0.978780358     0.280044532
     0.854880563     0.884820492     0.420066797
     0.573000964     0.666700106     0.000000000
     0.666960830     0.572740240     0.140022266
     0.556118680     0.551479394     0.523094341
     0.774239066     0.833358993     0.103027543
     0.868198933     0.739399127     0.243049809
     0.962158799     0.645439260     0.383072075
     0.500301943     0.871502123     0.243049809
     0.594261810     0.777542256     0.383072075
     0.688221676     0.683582390     0.523094341
     0.906342062     0.965461989     0.103027543
     0.072877637     0.166823433     0.297389276
     0.166837503     0.072863567     0.437411542
     0.384957889     0.354743166     0.017344745
     0.478917755     0.260783300     0.157367011
     0.030233426     0.377682639     0.484519233
     0.436273545     0.471642505     0.344496967
     0.248353812     0.159562253     0.064452436
     0.342313678     0.065602387     0.204474701
     0.080138817     0.491347243     0.064452436
     0.174098683     0.397387377     0.204474701
     0.268058550     0.303427511     0.344496967
     0.362018416     0.209467644     0.484519233
     0.572877637     0.166823433     0.297389276
     0.666837503     0.072863567     0.437411542
     0.884957889     0.354743166     0.017344745
     0.978917755     0.260783300     0.157367011
     0.530233426     0.377682639     0.484519233
     0.936273545     0.471642505     0.344496967
     0.748353812     0.159562253     0.064452436
     0.842313678     0.065602387     0.204474701
     0.580138817     0.491347243     0.064452436
     0.674098683     0.397387377     0.204474701
     0.768058550     0.303427511     0.344496967
     0.862018416     0.209467644     0.484519233
     0.072877637     0.666823433     0.297389276
     0.166837503     0.572863567     0.437411542
     0.384957889     0.854743166     0.017344745
     0.478917755     0.760783300     0.157367011
     0.030233426     0.877682639     0.484519233
     0.436273545     0.971642505     0.344496967
     0.248353812     0.659562253     0.064452436
     0.342313678     0.565602387     0.204474701
     0.080138817     0.991347243     0.064452436
     0.174098683     0.897387377     0.204474701
     0.268058550     0.803427511     0.344496967
     0.362018416     0.709467644     0.484519233
     0.572877637     0.666823433     0.297389276
     0.666837503     0.572863567     0.437411542
     0.884957889     0.854743166     0.017344745
     0.978917755     0.760783300     0.157367011
     0.530233426     0.877682639     0.484519233
     0.936273545     0.971642505     0.344496967
     0.748353812     0.659562253     0.064452436
     0.842313678     0.565602387     0.204474701
     0.580138817     0.991347243     0.064452436
     0.674098683     0.897387377     0.204474701
     0.768058550     0.803427511     0.344496967
     0.862018416     0.709467644     0.484519233
