Type_030 Type_130 
1.0
9.5784099999999999e+00 0.0000000000000000e+00 0.0000000000000000e+00 
0.0000000000000000e+00 1.1256463038200000e+01 0.0000000000000000e+00 
0.0000000000000000e+00 0.0000000000000000e+00 1.7711358899699999e+01 
Type_0 Type_1 
30 30 
Cartesian
   0.0102585710    5.0846440421    1.3039299344
   0.7736211742    4.2700842882    3.3183848654
   0.5439325110    3.8878099312    5.9683004694
   5.4403102191    1.8970209269    2.2475131065
   5.5628261742    1.1641339182    4.8606566479
   2.0389578704    2.1166700262    2.9109074065
   2.0389578704    1.5330006476    5.9954509715
   6.8281628704    5.2226203962    1.3686356240
   6.8281628704    4.6389510064    4.4531791890
   6.8171151215    4.0098736320    6.7660242928
   4.1027269879    5.0706806247    1.2997055569
   3.3042945666    4.2700842882    3.3183848654
   3.5471952954    3.8954744065    5.9599590154
   8.1594436847    1.9140928513    2.1595955431
   8.0934995666    1.1641339182    4.8606566479
   0.1109128132    0.0398211718    1.5005378472
   0.7534856681    9.9767474260    3.6293554534
   0.7677399879    9.3627161519    6.1291972030
   5.5628261742    7.3760348271    1.7761130829
   5.5060324129    6.8167095721    4.6007373052
   2.0984814399    7.5972816872    3.2546989468
   2.0389578704    7.1612321667    5.9954509715
   6.8408063329    9.8363155655    2.1616578677
   6.8281628704   10.2671825255    4.4531791890
   6.8779213974    0.0019326682    6.7517557035
   1.7607003440    9.3395706984    1.4800876659
   3.3042945666    9.8983158073    3.3183848654
   3.3885716204    9.4311119729    6.0462558115
   8.0130504379    7.2945127586    1.9977020180
   8.1581807619    6.8110390444    4.6241712094
   3.6806567404    2.9714762181    1.7633900796
   3.6501901085    2.3322387789    4.6268153475
   3.3269127924    2.4020991461    7.2952249987
   8.4393951085    5.4381891489    3.0845435650
   8.3330806302    5.0893577988    5.9035175770
   2.0389578704    5.0743156402    5.1456818273
   2.0389578704    0.0297536797    2.0611382800
   6.7586782805    3.0845095718    1.0916594135
   6.8281628704    2.5520346599    3.6034100625
   6.8286752232    1.9997904387    6.3740825557
   0.3999706046    2.9494396494    1.7548107375
   0.4277256322    2.3322387789    4.6268153475
   0.7448321532    2.3872451442    7.2988946281
   5.2169306322    5.4381891489    3.0845435650
   5.3229377808    5.1120085150    5.8987716341
   3.5459025203    8.3872858077    1.8698700773
   3.6501901085    7.9604702980    4.6268153475
   3.1916337174    7.9977486673    7.4300234706
   8.4393951085   11.0664206680    3.0845435650
   8.5311845604   10.5137713359    5.8040634180
   8.2873003557    6.1720032406    0.2503462852
   2.0389578704   10.7025471593    5.1456818273
   2.0389578704    5.6579851988    2.0611382800
   6.9065697255    8.4894116200    0.6761919097
   6.8281628704    8.1802661790    3.6034100625
   0.4277256322    7.9604702980    4.6268153475
   0.6464372292    7.7643682473    7.3430190626
   5.2169306322   11.0664206680    3.0845435650
   5.1964771775   10.5451169253    5.8380480837
   5.3937088873    6.0956474114    0.1578380981
