Structure 1 made from -111-6.xsd file
1.0
       10.0628203371        5.0445621212        0.0000000000
        0.0000000000       11.2564630382        0.0000000000
        0.0000000000        0.0000000000       22.1079252579
   Ni    S
   52   52
Direct
     0.260920696     0.478780360     0.265611352
     0.354880562     0.384820493     0.398417028
     0.448840428     0.290860627     0.531222704
     0.073000963     0.166700107     0.000000000
     0.166960829     0.072740241     0.132805676
     0.056118679     0.051479395     0.496134648
     0.274239065     0.333358994     0.097717620
     0.368198931     0.239399128     0.230523296
     0.462158798     0.145439262     0.363328972
     0.000301942     0.371502124     0.230523296
     0.094261809     0.277542258     0.363328972
     0.188221675     0.183582391     0.496134648
     0.406342061     0.465461991     0.097717620
     0.760920696     0.478780360     0.265611352
     0.854880562     0.384820493     0.398417028
     0.948840428     0.290860627     0.531222704
     0.573000963     0.166700107     0.000000000
     0.666960829     0.072740241     0.132805676
     0.556118679     0.051479395     0.496134648
     0.774239065     0.333358994     0.097717620
     0.868198931     0.239399128     0.230523296
     0.962158798     0.145439262     0.363328972
     0.500301942     0.371502124     0.230523296
     0.594261809     0.277542258     0.363328972
     0.688221675     0.183582391     0.496134648
     0.906342061     0.465461991     0.097717620
     0.260920696     0.978780360     0.265611352
     0.354880562     0.884820493     0.398417028
     0.448840428     0.790860627     0.531222704
     0.073000963     0.666700107     0.000000000
     0.166960829     0.572740241     0.132805676
     0.056118679     0.551479395     0.496134648
     0.274239065     0.833358994     0.097717620
     0.368198931     0.739399128     0.230523296
     0.462158798     0.645439262     0.363328972
     0.000301942     0.871502124     0.230523296
     0.094261809     0.777542258     0.363328972
     0.188221675     0.683582391     0.496134648
     0.406342061     0.965461991     0.097717620
     0.760920696     0.978780360     0.265611352
     0.854880562     0.884820493     0.398417028
     0.948840428     0.790860627     0.531222704
     0.573000963     0.666700107     0.000000000
     0.666960829     0.572740241     0.132805676
     0.556118679     0.551479395     0.496134648
     0.774239065     0.833358994     0.097717620
     0.868198931     0.739399128     0.230523296
     0.962158798     0.645439262     0.363328972
     0.500301942     0.871502124     0.230523296
     0.594261809     0.777542258     0.363328972
     0.688221675     0.683582391     0.496134648
     0.906342061     0.965461991     0.097717620
     0.072877635     0.166823435     0.282062168
     0.166837502     0.072863568     0.414867844
     0.384957888     0.354743168     0.016450816
     0.478917754     0.260783301     0.149256492
     0.260797368     0.478903687     0.547673521
     0.030233425     0.377682640     0.459547658
     0.436273543     0.471642507     0.326741982
     0.248353811     0.159562255     0.061130630
     0.342313677     0.065602388     0.193936306
     0.080138816     0.491347245     0.061130630
     0.174098682     0.397387378     0.193936306
     0.268058548     0.303427512     0.326741982
     0.362018415     0.209467645     0.459547658
     0.572877635     0.166823435     0.282062168
     0.666837502     0.072863568     0.414867844
     0.884957888     0.354743168     0.016450816
     0.978917754     0.260783301     0.149256492
     0.760797368     0.478903687     0.547673521
     0.530233425     0.377682640     0.459547658
     0.936273543     0.471642507     0.326741982
     0.748353811     0.159562255     0.061130630
     0.842313677     0.065602388     0.193936306
     0.580138816     0.491347245     0.061130630
     0.674098682     0.397387378     0.193936306
     0.768058548     0.303427512     0.326741982
     0.862018415     0.209467645     0.459547658
     0.072877635     0.666823435     0.282062168
     0.166837502     0.572863568     0.414867844
     0.384957888     0.854743168     0.016450816
     0.478917754     0.760783301     0.149256492
     0.260797368     0.978903687     0.547673521
     0.030233425     0.877682640     0.459547658
     0.436273543     0.971642507     0.326741982
     0.248353811     0.659562255     0.061130630
     0.342313677     0.565602388     0.193936306
     0.080138816     0.991347245     0.061130630
     0.174098682     0.897387378     0.193936306
     0.268058548     0.803427512     0.326741982
     0.362018415     0.709467645     0.459547658
     0.572877635     0.666823435     0.282062168
     0.666837502     0.572863568     0.414867844
     0.884957888     0.854743168     0.016450816
     0.978917754     0.760783301     0.149256492
     0.760797368     0.978903687     0.547673521
     0.530233425     0.877682640     0.459547658
     0.936273543     0.971642507     0.326741982
     0.748353811     0.659562255     0.061130630
     0.842313677     0.565602388     0.193936306
     0.580138816     0.991347245     0.061130630
     0.674098682     0.897387378     0.193936306
     0.768058548     0.803427512     0.326741982
     0.862018415     0.709467645     0.459547658
