Type_026 Type_126                       
   1.00000000000000     
    11.2564630381999997    0.0000000000000000    0.0000000000000000
     0.0000000000000000    9.5784099999999999    0.0000000000000000
     0.0000000000000000    0.0000000000000000   17.1924924047000012
   Ty   Ty
    26    26
Direct
  0.4255067604491458  0.4717144163384077  0.1848358704193060
  0.5009813674386479  0.4281109416176605  0.3239430031144011
  0.1578250505483894  0.9780285497906220  0.1018959817612668
  0.2152609639970393  0.9638879969953251  0.2525398899994897
  0.4393349899979597  0.1996819970015906  0.1628337709973167
  0.4616052322889246  0.1570269270578279  0.3072540994786692
  0.1650982513417603  0.6846788359132674  0.0986518938834209
  0.2092662829261727  0.6924271114725755  0.2399180221927821
  0.1306397029963620  0.3317849969984579  0.1391328760015114
  0.1824916370025633  0.3317849969984579  0.3185451150004752
  0.5224077204130637  0.9917141156204394  0.1087300389086678
  0.3980751999800916  0.8328872771890090  0.2098781917166122
  0.5402196879840133  0.8707054764621702  0.3067105918487130
  0.9393349899979597  0.4638879969953251  0.1628337709973167
  0.9827391012398294  0.4722978746890121  0.3225091836355389
  0.7046876841491780  0.1277557952311525  0.1085191633756324
  0.7152609639970393  0.9638879969953251  0.2525398899994897
  0.9393349899979597  0.1996819970015906  0.1628337709973167
  0.9835489687682895  0.1914833354700818  0.3228189259855512
  0.7388453492963194  0.8350311772935157  0.1079349853656311
  0.7152609639970393  0.6996819970015906  0.2525398899994897
  0.6214448319832613  0.3395060438527864  0.1568323095819935
  0.6909746065264670  0.3303399889960872  0.2950524906216216
  0.9641494223158276  0.7889673799513730  0.0919720664915218
  0.9065656619996147  0.8317849969984579  0.2288389949978651
  0.9969362728342830  0.8263744238239923  0.3538223504020266
  0.0671495232680925  0.1621846387761678  0.0787160525794377
  0.1114890379989788  0.1635699970036768  0.2389385289986805
  0.1216876352413294  0.1915179908774007  0.3972008395497753
  0.3355630629960302  0.6635699970036768  0.1492324090018826
  0.0645921874244664  0.5053545594623756  0.0792085138585108
  0.1114890379989788  0.4999999970036768  0.2389385289986805
  0.1168228899555217  0.4637720322579639  0.3995695840308784
  0.3355630629960302  0.9999999970036768  0.1492324090018826
  0.3776339429600952  0.9649570747336966  0.3127837636985049
  0.3147422544521206  0.3447133116039112  0.1173351198601367
  0.3678888029967027  0.3317849969984579  0.2691183590015811
  0.1053394731343289  0.8321131480068189  0.0209055561601872
  0.0919628440023317  0.8317849969984579  0.1794122389989710
  0.1730769107657082  0.8129355529153557  0.3367845328881529
  0.5467265717228429  0.2106024458652342  0.0672180016019155
  0.6114890379989788  0.1635699970036768  0.2389385289986805
  0.8355630629960302  0.6635699970036768  0.1492324090018826
  0.8918061040073582  0.6659006763022290  0.3113380682335887
  0.6114890379989788  0.4999999970036768  0.2389385289986805
  0.8355630629960302  0.9999999970036768  0.1492324090018826
  0.8974910406329073  0.9935771796362829  0.3136644575643857
  0.8025785361211177  0.3220182257806883  0.1152549095416973
  0.8678888029967027  0.3317849969984579  0.2691183590015811
  0.6582594040112326  0.9672151507504907  0.0296708989186811
  0.5919628440023317  0.8317849969984579  0.1794122389989710
  0.7015736388153115  0.8287767929437138  0.3486229744072205
 
  0.00000000E+00  0.00000000E+00  0.00000000E+00
  0.00000000E+00  0.00000000E+00  0.00000000E+00
  0.00000000E+00  0.00000000E+00  0.00000000E+00
  0.00000000E+00  0.00000000E+00  0.00000000E+00
  0.00000000E+00  0.00000000E+00  0.00000000E+00
  0.00000000E+00  0.00000000E+00  0.00000000E+00
  0.00000000E+00  0.00000000E+00  0.00000000E+00
  0.00000000E+00  0.00000000E+00  0.00000000E+00
  0.00000000E+00  0.00000000E+00  0.00000000E+00
  0.00000000E+00  0.00000000E+00  0.00000000E+00
  0.00000000E+00  0.00000000E+00  0.00000000E+00
  0.00000000E+00  0.00000000E+00  0.00000000E+00
  0.00000000E+00  0.00000000E+00  0.00000000E+00
  0.00000000E+00  0.00000000E+00  0.00000000E+00
  0.00000000E+00  0.00000000E+00  0.00000000E+00
  0.00000000E+00  0.00000000E+00  0.00000000E+00
  0.00000000E+00  0.00000000E+00  0.00000000E+00
  0.00000000E+00  0.00000000E+00  0.00000000E+00
  0.00000000E+00  0.00000000E+00  0.00000000E+00
  0.00000000E+00  0.00000000E+00  0.00000000E+00
  0.00000000E+00  0.00000000E+00  0.00000000E+00
  0.00000000E+00  0.00000000E+00  0.00000000E+00
  0.00000000E+00  0.00000000E+00  0.00000000E+00
  0.00000000E+00  0.00000000E+00  0.00000000E+00
  0.00000000E+00  0.00000000E+00  0.00000000E+00
  0.00000000E+00  0.00000000E+00  0.00000000E+00
  0.00000000E+00  0.00000000E+00  0.00000000E+00
  0.00000000E+00  0.00000000E+00  0.00000000E+00
  0.00000000E+00  0.00000000E+00  0.00000000E+00
  0.00000000E+00  0.00000000E+00  0.00000000E+00
  0.00000000E+00  0.00000000E+00  0.00000000E+00
  0.00000000E+00  0.00000000E+00  0.00000000E+00
  0.00000000E+00  0.00000000E+00  0.00000000E+00
  0.00000000E+00  0.00000000E+00  0.00000000E+00
  0.00000000E+00  0.00000000E+00  0.00000000E+00
  0.00000000E+00  0.00000000E+00  0.00000000E+00
  0.00000000E+00  0.00000000E+00  0.00000000E+00
  0.00000000E+00  0.00000000E+00  0.00000000E+00
  0.00000000E+00  0.00000000E+00  0.00000000E+00
  0.00000000E+00  0.00000000E+00  0.00000000E+00
  0.00000000E+00  0.00000000E+00  0.00000000E+00
  0.00000000E+00  0.00000000E+00  0.00000000E+00
  0.00000000E+00  0.00000000E+00  0.00000000E+00
  0.00000000E+00  0.00000000E+00  0.00000000E+00
  0.00000000E+00  0.00000000E+00  0.00000000E+00
  0.00000000E+00  0.00000000E+00  0.00000000E+00
  0.00000000E+00  0.00000000E+00  0.00000000E+00
  0.00000000E+00  0.00000000E+00  0.00000000E+00
  0.00000000E+00  0.00000000E+00  0.00000000E+00
  0.00000000E+00  0.00000000E+00  0.00000000E+00
  0.00000000E+00  0.00000000E+00  0.00000000E+00
  0.00000000E+00  0.00000000E+00  0.00000000E+00
