Type_048 Type_148                       
   1.00000000000000     
    11.2564630381999997    0.0000000000000000    0.0000000000000000
     5.0445621212000002   10.0628203370999998    0.0000000000000000
     0.0000000000000000    0.0000000000000000   22.5199559731999983
   Ty   Ty
    48    48
Direct
  0.2609206910021911  0.4787803719934516  0.2951977369987446
  0.3548805580032663  0.3848205049953179  0.4255735679992156
  0.1669608249997268  0.0727402529985923  0.1648219070018300
  0.9693105427766966  0.0071815227022967  0.4712728167643903
  0.2266962365083387  0.3038467215624721  0.0356122429970327
  0.2742390600059466  0.3333590059967975  0.1303758300013556
  0.3681989270014085  0.2393991400023623  0.2607516610018337
  0.4621587929986148  0.1454392730042287  0.3911274909987483
  0.0003019379965465  0.3715021359983197  0.2607516610018337
  0.0942618040026346  0.2775422690001932  0.3911274909987483
  0.4063420560008097  0.4654620020026954  0.1303758300013556
  0.7609206910021911  0.4787803719934516  0.2951977369987446
  0.8548805580032663  0.3848205049953179  0.4255735679992156
  0.0484768709638672  0.1956406973243574  0.4860807826767939
  0.5241744074251855  0.1969091523471462  0.0914397533880873
  0.6669608249997268  0.0727402529985923  0.1648219070018300
  0.5278145501115930  0.0681037803659592  0.4969713770985535
  0.7742390600059466  0.3333590059967975  0.1303758300013556
  0.8681989270014085  0.2393991400023623  0.2607516610018337
  0.9621587929986148  0.1454392730042287  0.3911274909987483
  0.5003019380054354  0.3715021359983197  0.2607516610018337
  0.5942618040026346  0.2775422690001932  0.3911274909987483
  0.6852125365211705  0.2006099024502461  0.4987587076443134
  0.9063420560008097  0.4654620020026954  0.1303758300013556
  0.2609206909999671  0.9787803719984183  0.2951977369987446
  0.3548805580010423  0.8848205050002917  0.4255735679992156
  0.5430810893875986  0.7077050998261498  0.4870171466832360
  0.1669608250019579  0.5727402529936185  0.1648219070018300
  0.0513300158095191  0.6295347892622374  0.4909481032848149
  0.2742390599992888  0.8333590059918237  0.1303758300013556
  0.3681989270036325  0.7393991399973885  0.2607516610018337
  0.4621587930008388  0.6454392729992620  0.3911274909987483
  0.0003019379987776  0.8715021359933530  0.2607516610018337
  0.0942618040048657  0.7775422689952194  0.3911274909987483
  0.4063420560030337  0.9654620019977287  0.1303758300013556
  0.2133408791800022  0.5280138134644687  0.0584544158774847
  0.7609206909999671  0.9787803719984183  0.2951977369987446
  0.8548805580010423  0.8848205050002917  0.4255735679992156
  0.8896989565232616  0.8498237766077921  0.5291347917145472
  0.6669608250019579  0.5727402529936185  0.1648219070018300
  0.7323907032906689  0.0137063211882520  0.0538634573328451
  0.7742390600081777  0.8333590059918237  0.1303758300013556
  0.8681989270036325  0.7393991399973885  0.2607516610018337
  0.9621587930008388  0.6454392729992620  0.3911274909987483
  0.5003019380076594  0.8715021359933530  0.2607516610018337
  0.5942618040048657  0.7775422689952194  0.3911274909987483
  0.9063420560030337  0.9654620019977287  0.1303758300013556
  0.7151904755606751  0.5259185318442405  0.0592401321560132
  0.0728776309965369  0.1668234470023151  0.3113475650016397
  0.1426529761638307  0.0242309131666616  0.4375092792466049
  0.3849578830003253  0.3547431790011188  0.0505959049989215
  0.4789177500002353  0.2607833129967503  0.1809717350002842
  0.0176901018231632  0.3842678171092544  0.4684329698492320
  0.4362735390021513  0.4716425189965960  0.3552099060015763
  0.2573774691807245  0.1588867301550962  0.1025783369847204
  0.3423136729996870  0.0656024000017297  0.2248340760002208
  0.0886383616943149  0.4551984203883848  0.0923735824517422
  0.1740986779961347  0.3973873900000910  0.2248340760002208
  0.2680585440010645  0.3034275239957154  0.3552099060015763
  0.3587343413746709  0.2219544854403779  0.4695155455180711
  0.5728776310054258  0.1668234470023151  0.3113475650016397
  0.6668374979976122  0.0728635800041815  0.4417233960021107
  0.8833322450574954  0.3548278559278160  0.0619949299350964
  0.9789177500091171  0.2607833129967503  0.1809717350002842
  0.5207841865429117  0.3644540759988288  0.4723096721706668
  0.9362735390021513  0.4716425189965960  0.3552099060015763
  0.7432573249889032  0.1625357464318355  0.1038683669490155
  0.8423136729996870  0.0656024000017297  0.2248340760002208
  0.5828281807481517  0.4832033619812464  0.1070617571441659
  0.6740986780050235  0.3973873900000910  0.2248340760002208
  0.7680585440010645  0.3034275239957154  0.3552099060015763
  0.8620184110021398  0.2094676569975888  0.4855857359984910
  0.0728776309987680  0.6668234469973413  0.3113475650016397
  0.1699692593272175  0.5660951876183162  0.4174547364740775
  0.3575224147146585  0.8826159502972502  0.0628276907816243
  0.4789177499980113  0.7607833130017170  0.1809717350002842
  0.0613207763785013  0.8067640679689987  0.4843513942647419
  0.4362735390043753  0.9716425189916222  0.3552099060015763
  0.2572254106785508  0.6569939377855647  0.1084959289399876
  0.3423136730019110  0.5656023999967630  0.2248340760002208
  0.0826203899691649  0.9804087502115948  0.1131610495035034
  0.1740986779983658  0.8973873899951244  0.2248340760002208
  0.2680585439988405  0.8034275240006892  0.3552099060015763
  0.3638336757981833  0.7187916902414386  0.4701154213311582
  0.5728776309987680  0.6668234469973413  0.3113475650016397
  0.6628244086190165  0.5769386809079364  0.4237532488454505
  0.8977717553664490  0.8418293064388820  0.0646946440496521
  0.9789177499980113  0.7607833130017170  0.1809717350002842
  0.5150976245889183  0.8971108826336902  0.4702612129128028
  0.9362735390043753  0.9716425189916222  0.3552099060015763
  0.7579821313470561  0.6572053295652793  0.1075400194246399
  0.8423136730019110  0.5656023999967630  0.2248340760002208
  0.5801388110061794  0.9913472569932509  0.0944582449997426
  0.6740986780072475  0.8973873899951244  0.2248340760002208
  0.7680585439988405  0.8034275240006892  0.3552099060015763
  0.8525307949000975  0.7248841129168113  0.4734816476590495
 
  0.00000000E+00  0.00000000E+00  0.00000000E+00
  0.00000000E+00  0.00000000E+00  0.00000000E+00
  0.00000000E+00  0.00000000E+00  0.00000000E+00
  0.00000000E+00  0.00000000E+00  0.00000000E+00
  0.00000000E+00  0.00000000E+00  0.00000000E+00
  0.00000000E+00  0.00000000E+00  0.00000000E+00
  0.00000000E+00  0.00000000E+00  0.00000000E+00
  0.00000000E+00  0.00000000E+00  0.00000000E+00
  0.00000000E+00  0.00000000E+00  0.00000000E+00
  0.00000000E+00  0.00000000E+00  0.00000000E+00
  0.00000000E+00  0.00000000E+00  0.00000000E+00
  0.00000000E+00  0.00000000E+00  0.00000000E+00
  0.00000000E+00  0.00000000E+00  0.00000000E+00
  0.00000000E+00  0.00000000E+00  0.00000000E+00
  0.00000000E+00  0.00000000E+00  0.00000000E+00
  0.00000000E+00  0.00000000E+00  0.00000000E+00
  0.00000000E+00  0.00000000E+00  0.00000000E+00
  0.00000000E+00  0.00000000E+00  0.00000000E+00
  0.00000000E+00  0.00000000E+00  0.00000000E+00
  0.00000000E+00  0.00000000E+00  0.00000000E+00
  0.00000000E+00  0.00000000E+00  0.00000000E+00
  0.00000000E+00  0.00000000E+00  0.00000000E+00
  0.00000000E+00  0.00000000E+00  0.00000000E+00
  0.00000000E+00  0.00000000E+00  0.00000000E+00
  0.00000000E+00  0.00000000E+00  0.00000000E+00
  0.00000000E+00  0.00000000E+00  0.00000000E+00
  0.00000000E+00  0.00000000E+00  0.00000000E+00
  0.00000000E+00  0.00000000E+00  0.00000000E+00
  0.00000000E+00  0.00000000E+00  0.00000000E+00
  0.00000000E+00  0.00000000E+00  0.00000000E+00
  0.00000000E+00  0.00000000E+00  0.00000000E+00
  0.00000000E+00  0.00000000E+00  0.00000000E+00
  0.00000000E+00  0.00000000E+00  0.00000000E+00
  0.00000000E+00  0.00000000E+00  0.00000000E+00
  0.00000000E+00  0.00000000E+00  0.00000000E+00
  0.00000000E+00  0.00000000E+00  0.00000000E+00
  0.00000000E+00  0.00000000E+00  0.00000000E+00
  0.00000000E+00  0.00000000E+00  0.00000000E+00
  0.00000000E+00  0.00000000E+00  0.00000000E+00
  0.00000000E+00  0.00000000E+00  0.00000000E+00
  0.00000000E+00  0.00000000E+00  0.00000000E+00
  0.00000000E+00  0.00000000E+00  0.00000000E+00
  0.00000000E+00  0.00000000E+00  0.00000000E+00
  0.00000000E+00  0.00000000E+00  0.00000000E+00
  0.00000000E+00  0.00000000E+00  0.00000000E+00
  0.00000000E+00  0.00000000E+00  0.00000000E+00
  0.00000000E+00  0.00000000E+00  0.00000000E+00
  0.00000000E+00  0.00000000E+00  0.00000000E+00
  0.00000000E+00  0.00000000E+00  0.00000000E+00
  0.00000000E+00  0.00000000E+00  0.00000000E+00
  0.00000000E+00  0.00000000E+00  0.00000000E+00
  0.00000000E+00  0.00000000E+00  0.00000000E+00
  0.00000000E+00  0.00000000E+00  0.00000000E+00
  0.00000000E+00  0.00000000E+00  0.00000000E+00
  0.00000000E+00  0.00000000E+00  0.00000000E+00
  0.00000000E+00  0.00000000E+00  0.00000000E+00
  0.00000000E+00  0.00000000E+00  0.00000000E+00
  0.00000000E+00  0.00000000E+00  0.00000000E+00
  0.00000000E+00  0.00000000E+00  0.00000000E+00
  0.00000000E+00  0.00000000E+00  0.00000000E+00
  0.00000000E+00  0.00000000E+00  0.00000000E+00
  0.00000000E+00  0.00000000E+00  0.00000000E+00
  0.00000000E+00  0.00000000E+00  0.00000000E+00
  0.00000000E+00  0.00000000E+00  0.00000000E+00
  0.00000000E+00  0.00000000E+00  0.00000000E+00
  0.00000000E+00  0.00000000E+00  0.00000000E+00
  0.00000000E+00  0.00000000E+00  0.00000000E+00
  0.00000000E+00  0.00000000E+00  0.00000000E+00
  0.00000000E+00  0.00000000E+00  0.00000000E+00
  0.00000000E+00  0.00000000E+00  0.00000000E+00
  0.00000000E+00  0.00000000E+00  0.00000000E+00
  0.00000000E+00  0.00000000E+00  0.00000000E+00
  0.00000000E+00  0.00000000E+00  0.00000000E+00
  0.00000000E+00  0.00000000E+00  0.00000000E+00
  0.00000000E+00  0.00000000E+00  0.00000000E+00
  0.00000000E+00  0.00000000E+00  0.00000000E+00
  0.00000000E+00  0.00000000E+00  0.00000000E+00
  0.00000000E+00  0.00000000E+00  0.00000000E+00
  0.00000000E+00  0.00000000E+00  0.00000000E+00
  0.00000000E+00  0.00000000E+00  0.00000000E+00
  0.00000000E+00  0.00000000E+00  0.00000000E+00
  0.00000000E+00  0.00000000E+00  0.00000000E+00
  0.00000000E+00  0.00000000E+00  0.00000000E+00
  0.00000000E+00  0.00000000E+00  0.00000000E+00
  0.00000000E+00  0.00000000E+00  0.00000000E+00
  0.00000000E+00  0.00000000E+00  0.00000000E+00
  0.00000000E+00  0.00000000E+00  0.00000000E+00
  0.00000000E+00  0.00000000E+00  0.00000000E+00
  0.00000000E+00  0.00000000E+00  0.00000000E+00
  0.00000000E+00  0.00000000E+00  0.00000000E+00
  0.00000000E+00  0.00000000E+00  0.00000000E+00
  0.00000000E+00  0.00000000E+00  0.00000000E+00
  0.00000000E+00  0.00000000E+00  0.00000000E+00
  0.00000000E+00  0.00000000E+00  0.00000000E+00
  0.00000000E+00  0.00000000E+00  0.00000000E+00
  0.00000000E+00  0.00000000E+00  0.00000000E+00
