Structure 3 made from 011-7.xsd file    
   1.00000000000000     
     8.4281814759000007   -4.5510103424999997    0.0000000000000000
     0.0000000000000000   10.0797329848999997    0.0000000000000000
     0.0000000000000000    0.0000000000000000   21.9471937009000015
   Ni   S 
    36    36
Direct
  0.1991219490000020  0.5514176430000006  0.0891855240000012
  0.1364820359999968  0.4261378169999972  0.2229638100000031
  0.0738421229999986  0.3008579910000009  0.3567420970000015
  0.0112022100000004  0.1755781660000011  0.4905203830000033
  0.8240286739999974  0.8012310920000019  0.1783710480000025
  0.7613887609999992  0.6759512670000021  0.3121493350000009
  0.6987488480000010  0.5506714409999987  0.4459276210000027
  0.5115753110000014  0.1763243669999994  0.1337782860000019
  0.4489353980000033  0.0510445419999996  0.2675565719999966
  0.3862954860000016  0.9257647160000033  0.4013348590000021
  0.3236555730000035  0.8004848899999999  0.5351131449999968
  0.2156717900000018  0.3203113240000022  0.0538404979999996
  0.1530318769999965  0.1950314990000024  0.1876187840000014
  0.0903919639999984  0.0697516729999990  0.3213970709999998
  0.0277520510000002  0.9444718470000026  0.4551753570000017
  0.8405785140000006  0.5701247739999999  0.1430260220000008
  0.7779386019999990  0.4448449479999965  0.2768043089999992
  0.7152986890000008  0.3195651220000002  0.4105825950000010
  0.6526587760000027  0.1942852970000004  0.5443608810000029
  0.5281251520000012  0.9452180489999975  0.0984332600000002
  0.4654852390000030  0.8199382230000012  0.2322115469999986
  0.4028453259999978  0.6946583980000014  0.3659898330000004
  0.3402054140000033  0.5693785719999980  0.4997681190000023
  0.4633279490000035  0.5514176430000006  0.0891855240000012
  0.4006880359999982  0.4261378169999972  0.2229638100000031
  0.3380481230000001  0.3008579910000009  0.3567420970000015
  0.2754082100000019  0.1755781660000011  0.4905203830000033
  0.1508745860000005  0.9265109179999982  0.0445927620000006
  0.0882346739999988  0.8012310920000019  0.1783710480000025
  0.0255947610000007  0.6759512670000021  0.3121493350000009
  0.9629548480000025  0.5506714409999987  0.4459276210000027
  0.8384212240000011  0.3016041930000029  0.0000000000000000
  0.7757813110000029  0.1763243669999994  0.1337782860000019
  0.7131413979999977  0.0510445419999996  0.2675565719999966
  0.6505014860000031  0.9257647160000033  0.4013348590000021
  0.5878615729999979  0.8004848899999999  0.5351131449999968
  0.3790333970000006  0.3106045390000034  0.1325408370000005
  0.3163934840000024  0.1853247130000000  0.2663191230000024
  0.2537535709999972  0.0600448880000002  0.4000974100000008
  0.1911136590000027  0.9347650619999968  0.5338756960000026
  0.0665800350000012  0.6856978140000010  0.0879480749999999
  0.0039401220000030  0.5604179890000012  0.2217263610000018
  0.9413002089999978  0.4351381629999977  0.3555046469999965
  0.8786602959999996  0.3098583370000014  0.4892829340000020
  0.7541266719999982  0.0607910900000022  0.0433553129999993
  0.6914867590000000  0.9355112639999987  0.1771335990000011
  0.6288468469999984  0.8102314380000024  0.3109118850000030
  0.5662069340000002  0.6849516130000026  0.4446901720000014
  0.4205993639999974  0.7301664729999970  0.0437695800000029
  0.3579594509999993  0.6048866470000007  0.1775478659999976
  0.2953195380000011  0.4796068220000009  0.3113261519999995
  0.2326796259999995  0.3543269959999975  0.4451044380000013
  0.0455060889999999  0.9799799230000019  0.1329551039999970
  0.9828661760000017  0.8547000969999985  0.2667333899999988
  0.9202262630000035  0.7294202710000022  0.4005116760000007
  0.8575863499999983  0.6041404460000024  0.5342899629999991
  0.7330527259999968  0.3550731979999995  0.0883623420000035
  0.6704128140000023  0.2297933720000032  0.2221406279999982
  0.6077729009999970  0.1045135470000034  0.3559189140000001
  0.5451329879999989  0.9792337209999999  0.4896972000000019
  0.0426033970000006  0.3106045390000034  0.1325408370000005
  0.9799634840000024  0.1853247130000000  0.2663191230000024
  0.9173235709999972  0.0600448880000002  0.4000974100000008
  0.8546836590000026  0.9347650619999968  0.5338756960000026
  0.7301500350000012  0.6856978140000010  0.0879480749999999
  0.6675101220000030  0.5604179890000012  0.2217263610000018
  0.6048702089999978  0.4351381629999977  0.3555046469999965
  0.5422302959999996  0.3098583370000014  0.4892829340000020
  0.4176966719999982  0.0607910900000022  0.0433553129999993
  0.3550567590000000  0.9355112639999987  0.1771335990000011
  0.2924168469999984  0.8102314380000024  0.3109118850000030
  0.2297769340000002  0.6849516130000026  0.4446901720000014
 
  0.00000000E+00  0.00000000E+00  0.00000000E+00
  0.00000000E+00  0.00000000E+00  0.00000000E+00
  0.00000000E+00  0.00000000E+00  0.00000000E+00
  0.00000000E+00  0.00000000E+00  0.00000000E+00
  0.00000000E+00  0.00000000E+00  0.00000000E+00
  0.00000000E+00  0.00000000E+00  0.00000000E+00
  0.00000000E+00  0.00000000E+00  0.00000000E+00
  0.00000000E+00  0.00000000E+00  0.00000000E+00
  0.00000000E+00  0.00000000E+00  0.00000000E+00
  0.00000000E+00  0.00000000E+00  0.00000000E+00
  0.00000000E+00  0.00000000E+00  0.00000000E+00
  0.00000000E+00  0.00000000E+00  0.00000000E+00
  0.00000000E+00  0.00000000E+00  0.00000000E+00
  0.00000000E+00  0.00000000E+00  0.00000000E+00
  0.00000000E+00  0.00000000E+00  0.00000000E+00
  0.00000000E+00  0.00000000E+00  0.00000000E+00
  0.00000000E+00  0.00000000E+00  0.00000000E+00
  0.00000000E+00  0.00000000E+00  0.00000000E+00
  0.00000000E+00  0.00000000E+00  0.00000000E+00
  0.00000000E+00  0.00000000E+00  0.00000000E+00
  0.00000000E+00  0.00000000E+00  0.00000000E+00
  0.00000000E+00  0.00000000E+00  0.00000000E+00
  0.00000000E+00  0.00000000E+00  0.00000000E+00
  0.00000000E+00  0.00000000E+00  0.00000000E+00
  0.00000000E+00  0.00000000E+00  0.00000000E+00
  0.00000000E+00  0.00000000E+00  0.00000000E+00
  0.00000000E+00  0.00000000E+00  0.00000000E+00
  0.00000000E+00  0.00000000E+00  0.00000000E+00
  0.00000000E+00  0.00000000E+00  0.00000000E+00
  0.00000000E+00  0.00000000E+00  0.00000000E+00
  0.00000000E+00  0.00000000E+00  0.00000000E+00
  0.00000000E+00  0.00000000E+00  0.00000000E+00
  0.00000000E+00  0.00000000E+00  0.00000000E+00
  0.00000000E+00  0.00000000E+00  0.00000000E+00
  0.00000000E+00  0.00000000E+00  0.00000000E+00
  0.00000000E+00  0.00000000E+00  0.00000000E+00
  0.00000000E+00  0.00000000E+00  0.00000000E+00
  0.00000000E+00  0.00000000E+00  0.00000000E+00
  0.00000000E+00  0.00000000E+00  0.00000000E+00
  0.00000000E+00  0.00000000E+00  0.00000000E+00
  0.00000000E+00  0.00000000E+00  0.00000000E+00
  0.00000000E+00  0.00000000E+00  0.00000000E+00
  0.00000000E+00  0.00000000E+00  0.00000000E+00
  0.00000000E+00  0.00000000E+00  0.00000000E+00
  0.00000000E+00  0.00000000E+00  0.00000000E+00
  0.00000000E+00  0.00000000E+00  0.00000000E+00
  0.00000000E+00  0.00000000E+00  0.00000000E+00
  0.00000000E+00  0.00000000E+00  0.00000000E+00
  0.00000000E+00  0.00000000E+00  0.00000000E+00
  0.00000000E+00  0.00000000E+00  0.00000000E+00
  0.00000000E+00  0.00000000E+00  0.00000000E+00
  0.00000000E+00  0.00000000E+00  0.00000000E+00
  0.00000000E+00  0.00000000E+00  0.00000000E+00
  0.00000000E+00  0.00000000E+00  0.00000000E+00
  0.00000000E+00  0.00000000E+00  0.00000000E+00
  0.00000000E+00  0.00000000E+00  0.00000000E+00
  0.00000000E+00  0.00000000E+00  0.00000000E+00
  0.00000000E+00  0.00000000E+00  0.00000000E+00
  0.00000000E+00  0.00000000E+00  0.00000000E+00
  0.00000000E+00  0.00000000E+00  0.00000000E+00
  0.00000000E+00  0.00000000E+00  0.00000000E+00
  0.00000000E+00  0.00000000E+00  0.00000000E+00
  0.00000000E+00  0.00000000E+00  0.00000000E+00
  0.00000000E+00  0.00000000E+00  0.00000000E+00
  0.00000000E+00  0.00000000E+00  0.00000000E+00
  0.00000000E+00  0.00000000E+00  0.00000000E+00
  0.00000000E+00  0.00000000E+00  0.00000000E+00
  0.00000000E+00  0.00000000E+00  0.00000000E+00
  0.00000000E+00  0.00000000E+00  0.00000000E+00
  0.00000000E+00  0.00000000E+00  0.00000000E+00
  0.00000000E+00  0.00000000E+00  0.00000000E+00
  0.00000000E+00  0.00000000E+00  0.00000000E+00
