Structure 3 made from 011-7.xsd file
1.0
        8.4281814759       -4.5510103425       -0.0000000000
        0.0000000000       10.0797329849        0.0000000000
        0.0000000000        0.0000000000       21.9471937009
   Ni    S
   36   36
Direct
     0.199121949     0.551417643     0.089185524
     0.136482036     0.426137817     0.222963810
     0.073842123     0.300857991     0.356742097
     0.011202210     0.175578166     0.490520383
     0.824028674     0.801231092     0.178371048
     0.761388761     0.675951267     0.312149335
     0.698748848     0.550671441     0.445927621
     0.511575311     0.176324367     0.133778286
     0.448935398     0.051044542     0.267556572
     0.386295486     0.925764716     0.401334859
     0.323655573     0.800484890     0.535113145
     0.215671790     0.320311324     0.053840498
     0.153031877     0.195031499     0.187618784
     0.090391964     0.069751673     0.321397071
     0.027752051     0.944471847     0.455175357
     0.840578514     0.570124774     0.143026022
     0.777938602     0.444844948     0.276804309
     0.715298689     0.319565122     0.410582595
     0.652658776     0.194285297     0.544360881
     0.528125152     0.945218049     0.098433260
     0.465485239     0.819938223     0.232211547
     0.402845326     0.694658398     0.365989833
     0.340205414     0.569378572     0.499768119
     0.463327949     0.551417643     0.089185524
     0.400688036     0.426137817     0.222963810
     0.338048123     0.300857991     0.356742097
     0.275408210     0.175578166     0.490520383
     0.150874586     0.926510918     0.044592762
     0.088234674     0.801231092     0.178371048
     0.025594761     0.675951267     0.312149335
     0.962954848     0.550671441     0.445927621
     0.838421224     0.301604193    -0.000000000
     0.775781311     0.176324367     0.133778286
     0.713141398     0.051044542     0.267556572
     0.650501486     0.925764716     0.401334859
     0.587861573     0.800484890     0.535113145
     0.379033397     0.310604539     0.132540837
     0.316393484     0.185324713     0.266319123
     0.253753571     0.060044888     0.400097410
     0.191113659     0.934765062     0.533875696
     0.066580035     0.685697814     0.087948075
     0.003940122     0.560417989     0.221726361
     0.941300209     0.435138163     0.355504647
     0.878660296     0.309858337     0.489282934
     0.754126672     0.060791090     0.043355313
     0.691486759     0.935511264     0.177133599
     0.628846847     0.810231438     0.310911885
     0.566206934     0.684951613     0.444690172
     0.420599364     0.730166473     0.043769580
     0.357959451     0.604886647     0.177547866
     0.295319538     0.479606822     0.311326152
     0.232679626     0.354326996     0.445104438
     0.045506089     0.979979923     0.132955104
     0.982866176     0.854700097     0.266733390
     0.920226263     0.729420271     0.400511676
     0.857586350     0.604140446     0.534289963
     0.733052726     0.355073198     0.088362342
     0.670412814     0.229793372     0.222140628
     0.607772901     0.104513547     0.355918914
     0.545132988     0.979233721     0.489697200
     0.042603397     0.310604539     0.132540837
     0.979963484     0.185324713     0.266319123
     0.917323571     0.060044888     0.400097410
     0.854683659     0.934765062     0.533875696
     0.730150035     0.685697814     0.087948075
     0.667510122     0.560417989     0.221726361
     0.604870209     0.435138163     0.355504647
     0.542230296     0.309858337     0.489282934
     0.417696672     0.060791090     0.043355313
     0.355056759     0.935511264     0.177133599
     0.292416847     0.810231438     0.310911885
     0.229776934     0.684951613     0.444690172
