Type_036 Type_136 
1.0
1.1452783670500001e+01 0.0000000000000000e+00 0.0000000000000000e+00 
-4.0053990701000002e+00 8.7007307979000004e+00 0.0000000000000000e+00 
0.0000000000000000e+00 0.0000000000000000e+00 2.0500762856000001e+01 
Type_0 Type_1 
36 36 
Cartesian
   6.3498294782    0.6471180538    7.1632766569
   8.0708222517    1.4393805677    4.6601620083
   9.7772673214    2.2006588814    2.4543012716
   4.6152936928    0.1244068941    9.3243670907
  -2.8082971717    6.9757802645    5.4945335647
  -1.0873044057    7.7680427697    2.9914189160
   5.3018306490    5.5888897527    9.7469762176
   6.9234937368    6.1835177507    7.9976482133
   1.7707661570    3.8114491635    6.3289051210
   3.4917589230    4.6037116687    3.8257904724
   5.1862529331    5.3655336878    1.6118842679
   2.5123357812    0.2734965619    8.3437154819
   4.2333285432    1.0657590758    5.8406008332
   5.9543213206    1.8580215810    3.3374862050
   7.6526733296    2.6405884781    1.2617839052
  -3.2038053408    8.1866837917    1.6687430923
   4.8069928017    6.6021587726    6.6749723896
   6.5279855677    7.3944212778    4.1718577409
  -0.3457347741    4.2300901768    5.0062292973
   1.3752579879    5.0223526907    2.5031146487
   3.0292365601    5.8267957187    0.4734690324
   7.6450580127    2.7965624472    8.5614464053
   9.8159163318    3.5285867818    7.3365368324
   3.9419201198    2.6002680611    9.1965593319
   5.2915790115    2.9459033350    7.1632766569
   7.0125717849    3.7381658488    4.6601620083
   8.7127126199    4.5458120200    2.4502639584
   0.1388514317    0.5738347478    5.4945335647
   1.8598441977    1.3660972530    2.9914189160
   3.4049717951    2.1175944169    1.2919392932
   4.3987042527    7.8226992589    9.7815675899
   5.8652432701    8.4823030318    7.9976482133
  -0.9988803666    5.6534601680    8.4947999343
   0.7125156903    6.1102344447    6.3289051210
   2.4335084562    6.9024969499    3.8257904724
   4.1557410968    7.7052990435    1.6169957006
   2.9632839169    1.1298089252   10.1470663952
   3.1253583171    2.3294667204    7.3517128013
   4.8463510791    3.1217292343    4.8485981527
   6.5673438451    3.9139917394    2.3454835040
  -0.3063764967    0.7496606384    3.1798550604
   1.5887401819    1.2699664360    0.9658965701
   3.7751214870    7.9756301653    7.8767259074
   5.4200153376    8.6581289311    5.6829697091
  -1.4537050116    5.4937978214    6.5173412450
   0.2672877504    6.2860603353    4.0142265963
   2.0798634281    6.9549383424    1.8103074449
   8.5182918627    4.7139668611    8.6059787075
  -0.6610275167    4.0848216911    2.1020003239
   5.8204311374    1.7963849688    9.0359585295
   7.5414238994    2.5886474827    6.5328438808
   9.2624166654    3.3809099879    4.0297292322
   2.3886963236    0.2165788868    4.8641007681
   4.0386158564    0.9239474708    2.8056694121
  -3.3376955085    8.1250471709    7.3672154167
   6.3548891494    7.3165160823    9.6747072440
   0.7779422520    4.7565538248    7.8734630489
   2.9623605707    5.7529785837    5.6984723244
   4.6833533367    6.5452410889    3.1953576758
   6.2017642964    7.2234103870    1.2394719003
   6.1938874882    0.1945423719    4.8485981527
   7.9148802542    0.9868048771    2.3454835040
  -0.8960574017    7.3873257332    9.5498559741
   0.4674956561    8.1030106559    7.3517128013
  -2.9642391577    6.5232045740    3.1798550604
  -1.4476015157    7.4259454883    1.0501290599
   5.1895052427    4.9112957251    7.8635930774
   6.7675517468    5.7309420688    5.6829697091
  -0.0137275517    2.5804798586    6.2394708317
   1.6148241596    3.3588734730    4.0142265963
   3.3358169370    4.1511359781    1.5111119476
   9.4704888105    1.8013752105    8.4812617319
