Structure 10 made from -112-9.xsd file
1.0
       16.8846940542        0.0000000000        0.0000000000
        0.0000000000        9.5784100000        0.0000000000
        0.0000000000        0.0000000000       16.2994563815
   Ni    S
   38   38
Direct
     0.780046307     0.145296954     0.127618888
     0.814614264     0.145296954     0.316861001
     0.262762328     0.645296954     0.032997832
     0.297330285     0.645296954     0.222239944
     0.435190321     0.145296954     0.064538184
     0.469758278     0.145296954     0.253780296
     0.952474300     0.645296954     0.159159240
     0.987042257     0.645296954     0.348401353
     0.090334335     0.145296954     0.001457480
     0.124902293     0.145296954     0.190699592
     0.607618314     0.645296954     0.096078536
     0.642186271     0.645296954     0.285320649
     0.907582776     0.013193954     0.102619437
     0.942150733     0.013193954     0.291861550
     0.390298797     0.513193954     0.007998381
     0.424866755     0.513193954     0.197240494
     0.459434712     0.513193954     0.386482606
     0.562726790     0.013193954     0.039538733
     0.597294747     0.013193954     0.228780846
     0.080010769     0.513193954     0.134159789
     0.114578726     0.513193954     0.323401902
     0.252438762     0.013193954     0.165700141
     0.287006719     0.013193954     0.354942254
     0.735154783     0.513193954     0.071079085
     0.769722740     0.513193954     0.260321198
     0.907582776     0.277399954     0.102619437
     0.942150733     0.277399954     0.291861550
     0.390298797     0.777399954     0.007998381
     0.424866755     0.777399954     0.197240494
     0.459434712     0.777399954     0.386482606
     0.562726790     0.277399954     0.039538733
     0.597294747     0.277399954     0.228780846
     0.080010769     0.777399954     0.134159789
     0.114578726     0.777399954     0.323401902
     0.252438762     0.277399954     0.165700141
     0.287006719     0.277399954     0.354942254
     0.735154783     0.777399954     0.071079085
     0.769722740     0.777399954     0.260321198
     0.026029163     0.145296954     0.378191215
     0.991461206     0.145296954     0.188949103
     0.474177227     0.645296954     0.094328046
     0.508745184     0.645296954     0.283570159
     0.646605220     0.145296954     0.125868399
     0.681173177     0.145296954     0.315110511
     0.129321241     0.645296954     0.031247342
     0.163889198     0.645296954     0.220489455
     0.301749234     0.145296954     0.062787694
     0.336317191     0.145296954     0.252029807
     0.819033213     0.645296954     0.157408751
     0.853601170     0.645296954     0.346650863
     0.794493097     0.313511954     0.031540352
     0.829061055     0.313511954     0.220782465
     0.311777076     0.813511954     0.126161408
     0.346345033     0.813511954     0.315403521
     0.484205069     0.313511954     0.157701761
     0.518773026     0.313511954     0.346943873
     0.001489047     0.813511954     0.252322817
     0.966921090     0.813511954     0.063080704
     0.139349083     0.313511954     0.094621056
     0.173917040     0.313511954     0.283863169
     0.622065105     0.813511954     0.000000000
     0.656633062     0.813511954     0.189242113
     0.691201019     0.813511954     0.378484225
     0.311777076     0.477081954     0.126161408
     0.346345033     0.477081954     0.315403521
     0.794493097     0.977081954     0.031540352
     0.829061055     0.977081954     0.220782465
     0.001489047     0.477081954     0.252322817
     0.966921090     0.477081954     0.063080704
     0.484205069     0.977081954     0.157701761
     0.518773026     0.977081954     0.346943873
     0.622065105     0.477081954     0.000000000
     0.656633062     0.477081954     0.189242113
     0.691201019     0.477081954     0.378484225
     0.139349083     0.977081954     0.094621056
     0.173917040     0.977081954     0.283863169
