Type_036 Type_136                       
   1.00000000000000     
    10.0797329848999997    0.0000000000000000    0.0000000000000000
     3.5732980426999998    9.4251025535000004    0.0000000000000000
     0.0000000000000000    0.0000000000000000   20.6835035552000015
   Ty   Ty
    36    36
Direct
  0.3970588919990305  0.7949517889985884  0.1269370240004619
  0.5473274039977767  0.6446832770051500  0.2538740490017162
  0.6975959169987007  0.4944147640037642  0.3808110730021710
  0.8268484223084371  0.3444216457564693  0.4848508253805406
  0.1138150629981425  0.4115289509990134  0.1692493660011465
  0.2640835749968886  0.2612604390055751  0.2961863900016013
  0.4143520880014009  0.1109919270015283  0.4231234140020632
  0.9736514038280575  0.6040873393558641  0.1051612304218708
  0.0986273621252636  0.7823389957026876  0.4514431259762333
  0.5456466380542224  0.2220917385904357  0.1491412107560706
  0.8305712340008427  0.0281061139967775  0.2115617070010316
  0.9808397459995888  0.8778376020033392  0.3384987320022859
  0.3730247038284773  0.5652288300058572  0.1075768477986188
  0.5076255620029286  0.4201791189984831  0.2203365250010663
  0.6578940739917485  0.2699106070050448  0.3472735500023276
  0.7891392220829516  0.1224693467946807  0.4583879148518974
  0.0741132200011165  0.1870247940002940  0.1357118420004966
  0.2243817329957096  0.0367562819962473  0.2626488670017508
  0.3746502450007796  0.8864877690054698  0.3895858910022127
  0.4349761554607170  0.7239256011242290  0.4741196461290329
  0.0737676754200365  0.3706541229201505  0.0496833199103577
  0.0837025778981797  0.5092285919602730  0.4185170446630480
  0.7908693909901316  0.8036019570086665  0.1780241840011811
  0.9411379029989675  0.6533334440072807  0.3049612080016431
  0.0247522681582382  0.1653638513589684  0.4256709272731740
  0.6253412241476681  0.5768120573798043  0.0818603335446184
  0.7321297189962763  0.4598809620050659  0.1867990020012158
  0.8823982319972004  0.3096124490036800  0.3137360260016777
  0.2986173780002304  0.2267266369962684  0.1021743190006461
  0.4488858899953811  0.0764581240054909  0.2291113430011080
  0.5991544019978861  0.9261896120014441  0.3560483680023623
  0.7339089036134681  0.8172959730861962  0.4519114702813525
  0.0153735480034882  0.8433037990073018  0.1444866600005312
  0.1656420609980884  0.6930352870032550  0.2714236850017926
  0.3159105729969980  0.5427667740018691  0.3983607090022474
  0.7399167294708988  0.0263972138751569  0.0956063580293574
  0.0013255383736137  0.9976822343761285  0.4805166574016582
  0.5857992939907959  0.4059993870070926  0.1172465670009899
  0.7360678059933008  0.2557308750030458  0.2441835920022513
  0.8863363179958057  0.1054623629989990  0.3711206159978744
  0.1672048771966956  0.1578428563037306  0.0462981364614734
  0.3025554640014079  0.0225765500048567  0.1595589090016745
  0.4528239770023319  0.8723080370034708  0.2864959330021364
  0.6030924889949176  0.7220395249994240  0.4134329569977595
  0.0193116350005198  0.6391537120052817  0.2018712500015667
  0.1695801479951129  0.4888852000012349  0.3288082740020215
  0.2916124372626356  0.3513794266005306  0.4302141160878392
  0.8627686458765140  0.8139945256352661  0.0828422701515308
  0.4389367610652783  0.6856402388852771  0.0408108071220710
  0.6363541289969774  0.6918745520045775  0.1599519899987243
  0.7866226419979014  0.5416060390031916  0.2868890149999856
  0.9368911540004063  0.3913375269991448  0.4138260390004405
  0.2075827855017707  0.4666108659440411  0.0872837964555657
  0.3531102999960822  0.3084517140050025  0.2022643319994160
  0.5033788119985942  0.1581832020009557  0.3292013559998708
  0.6328345275076899  0.0306424774224610  0.4420812848750302
  0.0698664709987895  0.9250288770027666  0.2445766729993011
  0.2201349829976991  0.7747603640013807  0.3715136980005553
  0.2844554991667110  0.6364816809947911  0.4881868145332362
  0.9195979579980289  0.0752973889962050  0.1176396489988392
  0.2081207866610981  0.7728667437889030  0.0987668263477772
  0.3504789649941600  0.6413197160019664  0.2026574130012975
  0.5007474769966649  0.4910512039979125  0.3295944379977200
  0.6516747261151465  0.3399854300800200  0.4412159127173467
  0.0672351359968673  0.2578968789997234  0.2449697550019820
  0.2175036479957768  0.1076283659983446  0.3719067789976052
  0.4014122026022449  0.9414531178448442  0.4812587755181070
  0.9169666229923479  0.4081653910037772  0.1180327310015272
  0.5131546746740199  0.1282465497578187  0.0670883382738694
  0.6395358101094288  0.0088403145883049  0.1806958750448402
  0.7839913059939647  0.8744740410001555  0.2872820960018672
  0.9342598189947182  0.7242055290067171  0.4142191209982897
 
  0.00000000E+00  0.00000000E+00  0.00000000E+00
  0.00000000E+00  0.00000000E+00  0.00000000E+00
  0.00000000E+00  0.00000000E+00  0.00000000E+00
  0.00000000E+00  0.00000000E+00  0.00000000E+00
  0.00000000E+00  0.00000000E+00  0.00000000E+00
  0.00000000E+00  0.00000000E+00  0.00000000E+00
  0.00000000E+00  0.00000000E+00  0.00000000E+00
  0.00000000E+00  0.00000000E+00  0.00000000E+00
  0.00000000E+00  0.00000000E+00  0.00000000E+00
  0.00000000E+00  0.00000000E+00  0.00000000E+00
  0.00000000E+00  0.00000000E+00  0.00000000E+00
  0.00000000E+00  0.00000000E+00  0.00000000E+00
  0.00000000E+00  0.00000000E+00  0.00000000E+00
  0.00000000E+00  0.00000000E+00  0.00000000E+00
  0.00000000E+00  0.00000000E+00  0.00000000E+00
  0.00000000E+00  0.00000000E+00  0.00000000E+00
  0.00000000E+00  0.00000000E+00  0.00000000E+00
  0.00000000E+00  0.00000000E+00  0.00000000E+00
  0.00000000E+00  0.00000000E+00  0.00000000E+00
  0.00000000E+00  0.00000000E+00  0.00000000E+00
  0.00000000E+00  0.00000000E+00  0.00000000E+00
  0.00000000E+00  0.00000000E+00  0.00000000E+00
  0.00000000E+00  0.00000000E+00  0.00000000E+00
  0.00000000E+00  0.00000000E+00  0.00000000E+00
  0.00000000E+00  0.00000000E+00  0.00000000E+00
  0.00000000E+00  0.00000000E+00  0.00000000E+00
  0.00000000E+00  0.00000000E+00  0.00000000E+00
  0.00000000E+00  0.00000000E+00  0.00000000E+00
  0.00000000E+00  0.00000000E+00  0.00000000E+00
  0.00000000E+00  0.00000000E+00  0.00000000E+00
  0.00000000E+00  0.00000000E+00  0.00000000E+00
  0.00000000E+00  0.00000000E+00  0.00000000E+00
  0.00000000E+00  0.00000000E+00  0.00000000E+00
  0.00000000E+00  0.00000000E+00  0.00000000E+00
  0.00000000E+00  0.00000000E+00  0.00000000E+00
  0.00000000E+00  0.00000000E+00  0.00000000E+00
  0.00000000E+00  0.00000000E+00  0.00000000E+00
  0.00000000E+00  0.00000000E+00  0.00000000E+00
  0.00000000E+00  0.00000000E+00  0.00000000E+00
  0.00000000E+00  0.00000000E+00  0.00000000E+00
  0.00000000E+00  0.00000000E+00  0.00000000E+00
  0.00000000E+00  0.00000000E+00  0.00000000E+00
  0.00000000E+00  0.00000000E+00  0.00000000E+00
  0.00000000E+00  0.00000000E+00  0.00000000E+00
  0.00000000E+00  0.00000000E+00  0.00000000E+00
  0.00000000E+00  0.00000000E+00  0.00000000E+00
  0.00000000E+00  0.00000000E+00  0.00000000E+00
  0.00000000E+00  0.00000000E+00  0.00000000E+00
  0.00000000E+00  0.00000000E+00  0.00000000E+00
  0.00000000E+00  0.00000000E+00  0.00000000E+00
  0.00000000E+00  0.00000000E+00  0.00000000E+00
  0.00000000E+00  0.00000000E+00  0.00000000E+00
  0.00000000E+00  0.00000000E+00  0.00000000E+00
  0.00000000E+00  0.00000000E+00  0.00000000E+00
  0.00000000E+00  0.00000000E+00  0.00000000E+00
  0.00000000E+00  0.00000000E+00  0.00000000E+00
  0.00000000E+00  0.00000000E+00  0.00000000E+00
  0.00000000E+00  0.00000000E+00  0.00000000E+00
  0.00000000E+00  0.00000000E+00  0.00000000E+00
  0.00000000E+00  0.00000000E+00  0.00000000E+00
  0.00000000E+00  0.00000000E+00  0.00000000E+00
  0.00000000E+00  0.00000000E+00  0.00000000E+00
  0.00000000E+00  0.00000000E+00  0.00000000E+00
  0.00000000E+00  0.00000000E+00  0.00000000E+00
  0.00000000E+00  0.00000000E+00  0.00000000E+00
  0.00000000E+00  0.00000000E+00  0.00000000E+00
  0.00000000E+00  0.00000000E+00  0.00000000E+00
  0.00000000E+00  0.00000000E+00  0.00000000E+00
  0.00000000E+00  0.00000000E+00  0.00000000E+00
  0.00000000E+00  0.00000000E+00  0.00000000E+00
  0.00000000E+00  0.00000000E+00  0.00000000E+00
  0.00000000E+00  0.00000000E+00  0.00000000E+00
