Type_048 Type_148                       
   1.00000000000000     
    11.2564630381999997    0.0000000000000000    0.0000000000000000
     5.0445621212000002   10.0628203370999998    0.0000000000000000
     0.0000000000000000    0.0000000000000000   21.7442318436000015
   Ty   Ty
    48    48
Direct
  0.2609206960044546  0.4787803599988010  0.2533279879979418
  0.3548805620016608  0.3848204930006744  0.3883549679997316
  0.3658877145832591  0.3738150252600150  0.4963283125210296
  0.1669608289981213  0.0727402410039417  0.1183010080007563
  0.0496163353857071  0.0546596318402024  0.4725993357187548
  0.2742390649993283  0.3333589940021469  0.0826260699997476
  0.3681989310042511  0.2393991279977712  0.2176530500015303
  0.4621587979997130  0.1454392620033360  0.3526800299987229
  0.0003019419993961  0.3715021239937357  0.2176530500015303
  0.0942618090037328  0.2775422579993005  0.3526800299987229
  0.1857817415015433  0.1904881413546562  0.4724443594646317
  0.4962665554631371  0.4555205712657084  0.1171602168392880
  0.7609206960044546  0.4787803599988010  0.2533279879979418
  0.8548805620016608  0.3848204930006744  0.3883549679997316
  0.8739642700835759  0.3653102261447501  0.4973533601686242
  0.6022483602893089  0.0964207536750692  0.1762953123647932
  0.5412715445500567  0.0540088161662098  0.4662020499005877
  0.8051874852012304  0.4323785990155002  0.1235406538626762
  0.8681989310042511  0.2393991279977712  0.2176530500015303
  0.9621587979997130  0.1454392620033360  0.3526800299987229
  0.5003019420082779  0.3715021239937357  0.2176530500015303
  0.5942618090037328  0.2775422579993005  0.3526800299987229
  0.6856924116785734  0.1984295439160562  0.4662002566388068
  0.0261926955460083  0.4235917330139287  0.1122886981274860
  0.2609206959977968  0.9787803599938343  0.2533279879979418
  0.3548805620038848  0.8848204929957006  0.3883549679997316
  0.3743435039304188  0.8657843911094574  0.4973456485878600
  0.1876107370476774  0.5527699305822082  0.1285542635585344
  0.0509838349822971  0.5501847724527238  0.4725934567113512
  0.2845789119664062  0.8327525304019261  0.0974948200262133
  0.3681989310064822  0.7393991279928045  0.2176530500015303
  0.4621587980019370  0.6454392619983693  0.3526800299987229
  0.0003019419971650  0.8715021239987024  0.2176530500015303
  0.0942618089970821  0.7775422579943267  0.3526800299987229
  0.1895166451041987  0.6887190595909303  0.4725935907147090
  0.4063420610041319  0.9654619909968361  0.0826260699997476
  0.7609206960066786  0.9787803599938343  0.2533279879979418
  0.8548805620038848  0.8848204929957006  0.3883549679997316
  0.9549745353279633  0.7847257539008865  0.5051483044333409
  0.6149052617150375  0.5990573088018820  0.1744947382593693
  0.5492326708530655  0.5539147923122272  0.4724946267036785
  0.7996847038625035  0.9340764207968348  0.1239777091225918
  0.8681989310064822  0.7393991279928045  0.2176530500015303
  0.9621587980019370  0.6454392619983693  0.3526800299987229
  0.5003019419971650  0.8715021239987024  0.2176530500015303
  0.5942618090059639  0.7775422579943267  0.3526800299987229
  0.6850454437216413  0.6900707333408675  0.4726446841912662
  0.0174038557704463  0.9356668682821194  0.1139480738855951
  0.0728776349993865  0.1668234349977240  0.2700539599989753
  0.1668375020004547  0.0728635679995975  0.4050809400007651
  0.3410334536580564  0.4745484776662678  0.0615248749839736
  0.4789177539986298  0.2607833010020997  0.1350269800017898
  0.2047912472938194  0.5349110491374702  0.5300419247135792
  0.0302334250019030  0.3776826399938784  0.4505080670018344
  0.4362735430005458  0.4716425070019454  0.3154810870000517
  0.2618912836934868  0.1577872984123658  0.0634433594813828
  0.3423136770025295  0.0656023879971457  0.1804541069982619
  0.1112900273895079  0.5006121786580309  0.0514540128042853
  0.1740986819989843  0.3973873779955071  0.1804541069982619
  0.2680585479994591  0.3034275120010648  0.3154810870000517
  0.3620184150005272  0.2094676450029382  0.4505080670018344
  0.5728776349993865  0.1668234349977240  0.2700539599989753
  0.6668375020004547  0.0728635679995975  0.4050809400007651
  0.8852371277856363  0.4673944053994177  0.0464083600404095
  0.9789177539986298  0.2607833010020997  0.1350269800017898
  0.7104484269924853  0.5288049004493658  0.5268285812254021
  0.5302334250019030  0.3776826399938784  0.4505080670018344
  0.9362735430005458  0.4716425070019454  0.3154810870000517
  0.8423136770025295  0.0656023879971457  0.1804541069982619
  0.6203802559470830  0.5261310344357994  0.0795104106889326
  0.6740986820078660  0.3973873779955071  0.1804541069982619
  0.7680585479994591  0.3034275120010648  0.3154810870000517
  0.8620184150005272  0.2094676450029382  0.4505080670018344
  0.0728776350016105  0.6668234349927573  0.2700539599989753
  0.1668375020026858  0.5728635679946237  0.4050809400007651
  0.3810265379120921  0.8488072164131992  0.0207911193254233
  0.4789177540008538  0.7607833009971330  0.1350269800017898
  0.2108501439858657  0.0293068363461373  0.5268113768052771
  0.0302334249996719  0.8776826399988451  0.4505080670018344
  0.4362735430027698  0.9716425069969787  0.3154810870000517
  0.3423136770003055  0.5656023880021124  0.1804541069982619
  0.1267673954095656  0.9755772480907865  0.0485100599638102
  0.1740986819967603  0.8973873780004737  0.1804541069982619
  0.2680585480016831  0.8034275119960981  0.3154810870000517
  0.3620184150027583  0.7094676449979715  0.4505080670018344
  0.5728776350016105  0.6668234349927573  0.2700539599989753
  0.6668375020026858  0.5728635679946237  0.4050809400007651
  0.8708721043627037  0.9890756367482112  0.0503918357834507
  0.9789177540008538  0.7607833009971330  0.1350269800017898
  0.5302334249996719  0.8776826399988451  0.4505080670018344
  0.9362735430027698  0.9716425069969787  0.3154810870000517
  0.8423136770003055  0.5656023880021124  0.1804541069982619
  0.5785288041826675  0.0060198881397753  0.0881064418085629
  0.6740986819967603  0.8973873780004737  0.1804541069982619
  0.7680585480016831  0.8034275119960981  0.3154810870000517
  0.8620184150027583  0.7094676449979715  0.4505080670018344
 
  0.00000000E+00  0.00000000E+00  0.00000000E+00
  0.00000000E+00  0.00000000E+00  0.00000000E+00
  0.00000000E+00  0.00000000E+00  0.00000000E+00
  0.00000000E+00  0.00000000E+00  0.00000000E+00
  0.00000000E+00  0.00000000E+00  0.00000000E+00
  0.00000000E+00  0.00000000E+00  0.00000000E+00
  0.00000000E+00  0.00000000E+00  0.00000000E+00
  0.00000000E+00  0.00000000E+00  0.00000000E+00
  0.00000000E+00  0.00000000E+00  0.00000000E+00
  0.00000000E+00  0.00000000E+00  0.00000000E+00
  0.00000000E+00  0.00000000E+00  0.00000000E+00
  0.00000000E+00  0.00000000E+00  0.00000000E+00
  0.00000000E+00  0.00000000E+00  0.00000000E+00
  0.00000000E+00  0.00000000E+00  0.00000000E+00
  0.00000000E+00  0.00000000E+00  0.00000000E+00
  0.00000000E+00  0.00000000E+00  0.00000000E+00
  0.00000000E+00  0.00000000E+00  0.00000000E+00
  0.00000000E+00  0.00000000E+00  0.00000000E+00
  0.00000000E+00  0.00000000E+00  0.00000000E+00
  0.00000000E+00  0.00000000E+00  0.00000000E+00
  0.00000000E+00  0.00000000E+00  0.00000000E+00
  0.00000000E+00  0.00000000E+00  0.00000000E+00
  0.00000000E+00  0.00000000E+00  0.00000000E+00
  0.00000000E+00  0.00000000E+00  0.00000000E+00
  0.00000000E+00  0.00000000E+00  0.00000000E+00
  0.00000000E+00  0.00000000E+00  0.00000000E+00
  0.00000000E+00  0.00000000E+00  0.00000000E+00
  0.00000000E+00  0.00000000E+00  0.00000000E+00
  0.00000000E+00  0.00000000E+00  0.00000000E+00
  0.00000000E+00  0.00000000E+00  0.00000000E+00
  0.00000000E+00  0.00000000E+00  0.00000000E+00
  0.00000000E+00  0.00000000E+00  0.00000000E+00
  0.00000000E+00  0.00000000E+00  0.00000000E+00
  0.00000000E+00  0.00000000E+00  0.00000000E+00
  0.00000000E+00  0.00000000E+00  0.00000000E+00
  0.00000000E+00  0.00000000E+00  0.00000000E+00
  0.00000000E+00  0.00000000E+00  0.00000000E+00
  0.00000000E+00  0.00000000E+00  0.00000000E+00
  0.00000000E+00  0.00000000E+00  0.00000000E+00
  0.00000000E+00  0.00000000E+00  0.00000000E+00
  0.00000000E+00  0.00000000E+00  0.00000000E+00
  0.00000000E+00  0.00000000E+00  0.00000000E+00
  0.00000000E+00  0.00000000E+00  0.00000000E+00
  0.00000000E+00  0.00000000E+00  0.00000000E+00
  0.00000000E+00  0.00000000E+00  0.00000000E+00
  0.00000000E+00  0.00000000E+00  0.00000000E+00
  0.00000000E+00  0.00000000E+00  0.00000000E+00
  0.00000000E+00  0.00000000E+00  0.00000000E+00
  0.00000000E+00  0.00000000E+00  0.00000000E+00
  0.00000000E+00  0.00000000E+00  0.00000000E+00
  0.00000000E+00  0.00000000E+00  0.00000000E+00
  0.00000000E+00  0.00000000E+00  0.00000000E+00
  0.00000000E+00  0.00000000E+00  0.00000000E+00
  0.00000000E+00  0.00000000E+00  0.00000000E+00
  0.00000000E+00  0.00000000E+00  0.00000000E+00
  0.00000000E+00  0.00000000E+00  0.00000000E+00
  0.00000000E+00  0.00000000E+00  0.00000000E+00
  0.00000000E+00  0.00000000E+00  0.00000000E+00
  0.00000000E+00  0.00000000E+00  0.00000000E+00
  0.00000000E+00  0.00000000E+00  0.00000000E+00
  0.00000000E+00  0.00000000E+00  0.00000000E+00
  0.00000000E+00  0.00000000E+00  0.00000000E+00
  0.00000000E+00  0.00000000E+00  0.00000000E+00
  0.00000000E+00  0.00000000E+00  0.00000000E+00
  0.00000000E+00  0.00000000E+00  0.00000000E+00
  0.00000000E+00  0.00000000E+00  0.00000000E+00
  0.00000000E+00  0.00000000E+00  0.00000000E+00
  0.00000000E+00  0.00000000E+00  0.00000000E+00
  0.00000000E+00  0.00000000E+00  0.00000000E+00
  0.00000000E+00  0.00000000E+00  0.00000000E+00
  0.00000000E+00  0.00000000E+00  0.00000000E+00
  0.00000000E+00  0.00000000E+00  0.00000000E+00
  0.00000000E+00  0.00000000E+00  0.00000000E+00
  0.00000000E+00  0.00000000E+00  0.00000000E+00
  0.00000000E+00  0.00000000E+00  0.00000000E+00
  0.00000000E+00  0.00000000E+00  0.00000000E+00
  0.00000000E+00  0.00000000E+00  0.00000000E+00
  0.00000000E+00  0.00000000E+00  0.00000000E+00
  0.00000000E+00  0.00000000E+00  0.00000000E+00
  0.00000000E+00  0.00000000E+00  0.00000000E+00
  0.00000000E+00  0.00000000E+00  0.00000000E+00
  0.00000000E+00  0.00000000E+00  0.00000000E+00
  0.00000000E+00  0.00000000E+00  0.00000000E+00
  0.00000000E+00  0.00000000E+00  0.00000000E+00
  0.00000000E+00  0.00000000E+00  0.00000000E+00
  0.00000000E+00  0.00000000E+00  0.00000000E+00
  0.00000000E+00  0.00000000E+00  0.00000000E+00
  0.00000000E+00  0.00000000E+00  0.00000000E+00
  0.00000000E+00  0.00000000E+00  0.00000000E+00
  0.00000000E+00  0.00000000E+00  0.00000000E+00
  0.00000000E+00  0.00000000E+00  0.00000000E+00
  0.00000000E+00  0.00000000E+00  0.00000000E+00
  0.00000000E+00  0.00000000E+00  0.00000000E+00
  0.00000000E+00  0.00000000E+00  0.00000000E+00
  0.00000000E+00  0.00000000E+00  0.00000000E+00
  0.00000000E+00  0.00000000E+00  0.00000000E+00
