Type_052 Type_152 
1.0
1.1256463038200000e+01 0.0000000000000000e+00 0.0000000000000000e+00 
5.0445621212000002e+00 1.0062820337100000e+01 0.0000000000000000e+00 
0.0000000000000000e+00 0.0000000000000000e+00 2.2883649387500000e+01 
Type_0 Type_1 
52 52 
Cartesian
   5.3522814389    4.8178807436    6.6478400577
   5.9359508116    3.8723794831    9.5838980192
   6.6361585020    3.0064615953   11.9783436615
   1.4094747544    2.0395012185    2.0480546737
   2.2463310649    0.7319719765    3.7117820963
   0.7598316418    0.5342681218   11.3742115993
   5.0156502231    5.3826879232    1.3364952264
   4.7686120527    3.3545316644    2.9360579615
   5.3522814305    2.4090304139    5.8721159229
   5.9359508195    1.4635291635    8.8081738844
   1.8774643416    3.7383591286    5.8721159229
   2.4611337307    2.7928578782    8.8081738844
   3.0464577491    1.9519487975   11.3873091578
   6.9220263192    4.6838603892    2.9360579615
   2.5894888399    0.0683895751    1.2124310567
  10.9805129580    4.8178807436    6.6478400577
  11.5641823307    3.8723794831    9.5838980192
  12.1035714148    3.0041089999   12.2090154991
   7.1367435266    2.0645174936    1.9559255140
   7.8745625840    0.7319719765    3.7117820963
   6.3939902940    0.4955541726   11.3350478731
   9.6131169563    3.1550448512    0.7672465427
  10.3968435718    3.3545316644    2.9360579615
  10.9805129496    2.4090304139    5.8721159229
  11.5641823386    1.4635291635    8.8081738844
   7.5056958608    3.7383591286    5.8721159229
   8.0893652498    2.7928578782    8.8081738844
   8.7195309384    2.3029673526   11.1207869945
  12.5502578383    4.6838603892    2.9360579615
   9.3123356804    0.4162489995    0.5262211273
   7.8745624994    9.8492909121    6.6478400577
   8.4582318722    8.9037896516    9.5838980192
   4.7686121255    5.7633821450    3.7117820963
   3.6697858652    5.3108822837   10.8483193453
   7.2908931133    8.3859418329    2.9360579615
   7.8745624911    7.4404405824    5.8721159229
   8.4582318801    6.4949393320    8.8081738844
   4.3997454022    8.7697692972    5.8721159229
   4.9834147912    7.8242680467    8.8081738844
   9.4443073798    9.7152705577    2.9360579615
  13.5027940186    9.8492909121    6.6478400577
  14.0864633913    8.9037896516    9.5838980192
   9.2149095064    0.0844404532   11.6122710024
  10.3968436446    5.7633821450    3.7117820963
  12.4482908352    9.0306499440    0.6186839529
  12.9191246324    8.3859418329    2.9360579615
  13.5027940102    7.4404405824    5.8721159229
  14.0864633992    6.4949393320    8.8081738844
  10.0279769213    8.7697692972    5.8721159229
  10.6116463104    7.8242680467    8.8081738844
  15.0725388989    9.7152705577    2.9360579615
  10.7241623295    5.3325920488    1.2963941376
   1.6618955858    1.6787142544    7.0115334673
   2.2455649698    0.7332129939    9.9475914287
   6.0515334876    3.6455713235    1.2807641096
   6.7064575583    2.6242155049    4.0754755058
   5.4259557694    4.6405144928   11.6479962735
   2.2455649706    3.8005525507   10.9353694178
   7.2901269369    4.7460538113    7.9993114563
   3.6005072015    1.6056463046    2.1271955334
   4.1841765742    0.6601450441    5.0632534949
   3.3525652877    4.8508055640    2.4207339893
   3.9643806934    3.9988377890    5.0632534949
   4.5480500712    3.0533365386    7.9993114563
   5.1317194552    2.1078352781   10.9353694178
   7.2901271049    1.6787142544    7.0115334673
   7.8737964889    0.7332129939    9.9475914287
  11.7510197047    3.5697167654    1.1394175444
  12.3346890774    2.6242155049    4.0754755058
  11.0962798031    4.6175511886   11.4889903000
   7.8148029977    4.0421556328   10.5353623749
  12.9183584560    4.7460538113    7.9993114563
   9.2287387206    1.6056463046    2.1271955334
   9.8124080933    0.6601450441    5.0632534949
   8.9649069461    4.7026510750    2.1794036179
   9.5926122126    3.9988377890    5.0632534949
  10.1762815903    3.0533365386    7.9993114563
  10.7599509743    2.1078352781   10.9353694178
   4.1841766464    6.7101244229    7.0115334673
   4.8936078673    5.7931761095    9.2769844624
   8.7353435305    8.4677711765    1.4656386473
   9.2287386189    7.6556256734    4.0754755058
   1.8275144994    1.3542441954   12.9220519828
   4.5793258465    9.0426495344   10.7002633092
   9.8124079975    9.7774639798    7.9993114563
   6.2232512677    6.6201331784    2.4292247847
   6.7064576348    5.6915552127    5.0632534949
   5.8887953319    9.9839228445    2.3385425210
   6.4866617540    9.0302479576    5.0632534949
   7.0703311318    8.0847467071    7.9993114563
   8.0653659359    7.2397820867   10.6195463254
   9.8124081655    6.7101244229    7.0115334673
  10.4109624644    5.7841402839    9.2840550223
  14.2872833566    8.6062814508    1.3367252310
  14.8569701380    7.6556256734    4.0754755058
   7.7929112806    1.2710173342   12.6679954543
  10.3366321044    8.9519164424   10.5327145221
  15.4406395166    9.7774639798    7.9993114563
  11.8458426107    6.6307187521    2.4389971075
  12.3346891539    5.6915552127    5.0632534949
  11.5312239004    9.9757492181    2.1271955334
  12.1148932731    9.0302479576    5.0632534949
  12.6985626509    8.0847467071    7.9993114563
  13.8952549229    7.1225197813   10.7276716324
