Type_036 Type_136 
1.0
1.0079732984900000e+01 0.0000000000000000e+00 0.0000000000000000e+00 
3.5732980426999998e+00 9.4251025535000004e+00 0.0000000000000000e+00 
0.0000000000000000e+00 0.0000000000000000e+00 2.0502009575999999e+01 
Type_0 Type_1 
36 36 
Cartesian
   6.4580091941    7.0816657522    1.9426372259
   7.4357214877    5.6653696066    4.5681396206
   8.4134337949    4.2490734704    7.1936420154
   8.8950176470    3.2001732731    9.5089014775
   6.2052936668    1.6045968865    1.4835516216
   7.7616255985    0.3261653346    2.8178046840
   2.8470828674    7.2079954097    7.7455495134
  12.3126359384    8.3349717520    5.4433070787
   2.5588070506    2.9957674706    3.6929721626
   3.5365193478    1.5794713344    6.3184745573
   4.4054533308    0.2632043431    8.6743467390
  11.6457274938    4.4382194349    1.6175700341
   0.5138173470    1.0909965632    8.4317974300
   7.7893965133    5.2593015545    0.9927001667
   8.6381257309    3.9235888450    3.1807926405
   9.6158380346    2.5072926994    5.8062950353
   3.4353071932    6.5931909810    4.0559601191
   4.4130194868    5.1768948354    6.6814625139
   5.3942423081    3.8079534275    8.9443790279
   2.7999664124    6.7695707610    1.8203205607
   3.7612112903    1.2539866996    2.3056251824
   8.3122216302    9.2627931169    4.9311275772
   9.2899339375    7.8464969808    7.5566299720
  10.2558007485    6.6514338453    9.4238899094
   1.7138412481    3.2129086719    8.8966791813
   9.0091707642    7.4246176095    1.6470302643
   9.8405299722    6.0395635484    3.8744661408
  10.8182422694    4.6232674122    6.4999685356
   1.1193945224    0.8386077167    3.0090201729
   4.6377114244    8.7091656844    4.7496335989
   5.5496077997    7.4659683923    7.0562028971
   8.0564884351    5.5843682922    9.1814175131
   4.7639101909    5.0444117760    1.1432623832
   4.9636155251    3.3699614124    2.9992986622
   5.9413278288    1.9536652668    5.6248010570
   6.8878890124    0.6993764932    7.9543141942
   1.5798114469    2.4701758255    6.9932094083
   2.5633169327    1.2078262244    9.0100268075
   9.7041198410    5.3027681073    1.7422046188
  10.6818321382    3.8864719711    4.3677070135
   4.5013012932    7.9723702433    2.6173720974
   5.4790136004    6.5560741071    5.2428744921
   6.4567258976    5.1397779710    7.8683768664
   7.1001462985    4.0018662557   10.1391437304
   4.6245704814    2.8428503861    1.0291389680
   5.8049177011    1.2168698352    3.4925395554
  10.3559280375    9.2256762431    6.1180419502
  11.2253858336    8.2042977580    8.5074412232
   7.4274471757    8.8191903072    1.3031010034
   8.1730234298    7.5206863411    3.5088001708
   9.1507357270    6.1043902049    6.1343025656
  10.1284480307    4.6880940593    8.7598049603
   8.1142635157    2.2303225650    2.0773831697
   9.4766398241    0.7651859235    4.3839676289
   3.9479171892    8.7739923409    7.0094700237
   3.2961089827    4.8510842051    2.6336326922
   4.2738212864    3.4347880595    5.2591350870
   5.2515335835    2.0184919233    7.8846374818
   2.8486270213    5.4402383818    0.2713172078
   6.1666267702    6.1596713229    0.1369978592
   6.6419270178    4.8262836029    2.6255023948
   7.6196393215    3.4099874573    5.2510047896
   8.5973516187    1.9936913211    7.8765071843
  10.5231579785    2.1657573914   10.1715108039
   2.4168207737    6.0795895932    6.1261722476
   3.4773973905    4.4062993378    8.3855076749
  10.2812113064    9.0285757470    1.2211793077
  11.5188414649    7.4958857388    3.5006698529
   1.9222280928    2.3256717219    1.8371283198
   2.7427248744    0.7403853213    4.3758373315
   7.2937352244    8.7491917387    7.0013397262
   8.4425080319    7.6649056021    9.4448994274
