Structure 1 made from 0-21-1.xsd file   
   1.00000000000000     
     8.7007307979000004   -4.0053990701000002    0.0000000000000000
     0.0000000000000000   11.4527836704000006    0.0000000000000000
     0.0000000000000000    0.0000000000000000   19.5241543202999992
   Ni   S 
    36    36
Direct
  0.6379359170000001  0.4290455760000000  0.0177250839999985
  0.7289929250000000  0.6111595910000034  0.1459311309999975
  0.8200499320000034  0.7932736059999996  0.2741371779999966
  0.9111069400000034  0.9753876210000030  0.4023432250000027
  0.4563642629999975  0.0659022680000021  0.2314018289999993
  0.5474212709999975  0.2480162829999983  0.3596078759999983
  0.6384782780000009  0.4301302980000017  0.4878139229999974
  0.3653072560000012  0.8837882529999987  0.1031957820000002
  0.0016215870000025  0.1564169139999976  0.0604604330000029
  0.0926785939999988  0.3385309299999975  0.1886664800000020
  0.1837356019999987  0.5206449450000008  0.3168725270000010
  0.2747926090000021  0.7027589599999970  0.4450785740000001
  0.6860515329999970  0.2610708070000030  0.0854706980000017
  0.7771085400000004  0.4431848219999992  0.2136767450000008
  0.8681655480000003  0.6252988370000025  0.3418827919999998
  0.9592225560000003  0.8074128519999988  0.4700888389999989
  0.5955368859999979  0.0800415140000013  0.4273534900000016
  0.3223658639999982  0.5336994689999983  0.0427353489999973
  0.4134228710000016  0.7158134840000017  0.1709413960000035
  0.5044798790000016  0.8979274989999979  0.2991474430000025
  0.1407942100000028  0.1705561599999967  0.2564120939999981
  0.2318512169999991  0.3526701759999966  0.3846181409999971
  0.0497372020000029  0.9884421450000005  0.1282060469999990
  0.9586801940000029  0.8063281299999971  0.0000000000000000
  0.0842559319999978  0.7932736059999996  0.2741371779999966
  0.1753129399999978  0.9753876210000030  0.4023432250000027
  0.9021419170000016  0.4290455760000000  0.0177250839999985
  0.9931989250000015  0.6111595910000034  0.1459311309999975
  0.7205702629999990  0.0659022680000021  0.2314018289999993
  0.8116272709999990  0.2480162829999983  0.3596078759999983
  0.9026842780000024  0.4301302980000017  0.4878139229999974
  0.6295132560000027  0.8837882529999987  0.1031957820000002
  0.2658275869999969  0.1564169139999976  0.0604604330000029
  0.3568845940000003  0.3385309299999975  0.1886664800000020
  0.4479416020000002  0.5206449450000008  0.3168725270000010
  0.5389986089999965  0.7027589599999970  0.4450785740000001
  0.0134071000000020  0.5793519420000024  0.2644857419999980
  0.1044641080000019  0.7614659569999986  0.3926917889999970
  0.8312930849999987  0.2151239120000028  0.0080736479999999
  0.9223500929999986  0.3972379269999990  0.1362796949999989
  0.7407784390000032  0.0340946190000011  0.3499564399999997
  0.8318354459999995  0.2162086339999973  0.4781624869999987
  0.5586644239999998  0.6698665879999979  0.0935443460000016
  0.6497214310000032  0.8519806030000012  0.2217503930000007
  0.2860357619999974  0.1246092649999966  0.1790150440000033
  0.3770927690000008  0.3067232799999999  0.3072210910000024
  0.4681497770000007  0.4888372950000033  0.4354271380000014
  0.1949787539999974  0.9424952500000003  0.0508089969999972
  0.1342524969999985  0.1574727360000026  0.4346331149999969
  0.0431954900000022  0.9753587209999992  0.3064270679999979
  0.8610814749999989  0.6111306900000031  0.0500149739999998
  0.9521384820000023  0.7932447060000030  0.1782210209999988
  0.5884528130000035  0.0658733670000018  0.1354856720000015
  0.6795098210000035  0.2479873819999980  0.2636917190000005
  0.7705668279999998  0.4301013970000014  0.3918977659999996
  0.4973958049999965  0.8837593519999984  0.0072796250000025
  0.2247671439999976  0.3385020289999972  0.0927503229999971
  0.3158241510000011  0.5206160440000005  0.2209563700000032
  0.4068811590000010  0.7027300589999967  0.3491624170000023
  0.4979381659999973  0.8848440740000001  0.4773684640000013
  0.4948630849999986  0.2151239120000028  0.0080736479999999
  0.5859200929999986  0.3972379269999990  0.1362796949999989
  0.6769771000000020  0.5793519420000024  0.2644857419999980
  0.7680341080000019  0.7614659569999986  0.3926917889999970
  0.4043484390000032  0.0340946190000011  0.3499564399999997
  0.4954054459999995  0.2162086339999973  0.4781624869999987
  0.2222344239999998  0.6698665879999979  0.0935443460000016
  0.3132914310000032  0.8519806030000012  0.2217503930000007
  0.0406627690000008  0.3067232799999999  0.3072210910000024
  0.1317197770000007  0.4888372950000033  0.4354271380000014
  0.9496057619999974  0.1246092649999966  0.1790150440000033
  0.8585487539999974  0.9424952500000003  0.0508089969999972
 
  0.00000000E+00  0.00000000E+00  0.00000000E+00
  0.00000000E+00  0.00000000E+00  0.00000000E+00
  0.00000000E+00  0.00000000E+00  0.00000000E+00
  0.00000000E+00  0.00000000E+00  0.00000000E+00
  0.00000000E+00  0.00000000E+00  0.00000000E+00
  0.00000000E+00  0.00000000E+00  0.00000000E+00
  0.00000000E+00  0.00000000E+00  0.00000000E+00
  0.00000000E+00  0.00000000E+00  0.00000000E+00
  0.00000000E+00  0.00000000E+00  0.00000000E+00
  0.00000000E+00  0.00000000E+00  0.00000000E+00
  0.00000000E+00  0.00000000E+00  0.00000000E+00
  0.00000000E+00  0.00000000E+00  0.00000000E+00
  0.00000000E+00  0.00000000E+00  0.00000000E+00
  0.00000000E+00  0.00000000E+00  0.00000000E+00
  0.00000000E+00  0.00000000E+00  0.00000000E+00
  0.00000000E+00  0.00000000E+00  0.00000000E+00
  0.00000000E+00  0.00000000E+00  0.00000000E+00
  0.00000000E+00  0.00000000E+00  0.00000000E+00
  0.00000000E+00  0.00000000E+00  0.00000000E+00
  0.00000000E+00  0.00000000E+00  0.00000000E+00
  0.00000000E+00  0.00000000E+00  0.00000000E+00
  0.00000000E+00  0.00000000E+00  0.00000000E+00
  0.00000000E+00  0.00000000E+00  0.00000000E+00
  0.00000000E+00  0.00000000E+00  0.00000000E+00
  0.00000000E+00  0.00000000E+00  0.00000000E+00
  0.00000000E+00  0.00000000E+00  0.00000000E+00
  0.00000000E+00  0.00000000E+00  0.00000000E+00
  0.00000000E+00  0.00000000E+00  0.00000000E+00
  0.00000000E+00  0.00000000E+00  0.00000000E+00
  0.00000000E+00  0.00000000E+00  0.00000000E+00
  0.00000000E+00  0.00000000E+00  0.00000000E+00
  0.00000000E+00  0.00000000E+00  0.00000000E+00
  0.00000000E+00  0.00000000E+00  0.00000000E+00
  0.00000000E+00  0.00000000E+00  0.00000000E+00
  0.00000000E+00  0.00000000E+00  0.00000000E+00
  0.00000000E+00  0.00000000E+00  0.00000000E+00
  0.00000000E+00  0.00000000E+00  0.00000000E+00
  0.00000000E+00  0.00000000E+00  0.00000000E+00
  0.00000000E+00  0.00000000E+00  0.00000000E+00
  0.00000000E+00  0.00000000E+00  0.00000000E+00
  0.00000000E+00  0.00000000E+00  0.00000000E+00
  0.00000000E+00  0.00000000E+00  0.00000000E+00
  0.00000000E+00  0.00000000E+00  0.00000000E+00
  0.00000000E+00  0.00000000E+00  0.00000000E+00
  0.00000000E+00  0.00000000E+00  0.00000000E+00
  0.00000000E+00  0.00000000E+00  0.00000000E+00
  0.00000000E+00  0.00000000E+00  0.00000000E+00
  0.00000000E+00  0.00000000E+00  0.00000000E+00
  0.00000000E+00  0.00000000E+00  0.00000000E+00
  0.00000000E+00  0.00000000E+00  0.00000000E+00
  0.00000000E+00  0.00000000E+00  0.00000000E+00
  0.00000000E+00  0.00000000E+00  0.00000000E+00
  0.00000000E+00  0.00000000E+00  0.00000000E+00
  0.00000000E+00  0.00000000E+00  0.00000000E+00
  0.00000000E+00  0.00000000E+00  0.00000000E+00
  0.00000000E+00  0.00000000E+00  0.00000000E+00
  0.00000000E+00  0.00000000E+00  0.00000000E+00
  0.00000000E+00  0.00000000E+00  0.00000000E+00
  0.00000000E+00  0.00000000E+00  0.00000000E+00
  0.00000000E+00  0.00000000E+00  0.00000000E+00
  0.00000000E+00  0.00000000E+00  0.00000000E+00
  0.00000000E+00  0.00000000E+00  0.00000000E+00
  0.00000000E+00  0.00000000E+00  0.00000000E+00
  0.00000000E+00  0.00000000E+00  0.00000000E+00
  0.00000000E+00  0.00000000E+00  0.00000000E+00
  0.00000000E+00  0.00000000E+00  0.00000000E+00
  0.00000000E+00  0.00000000E+00  0.00000000E+00
  0.00000000E+00  0.00000000E+00  0.00000000E+00
  0.00000000E+00  0.00000000E+00  0.00000000E+00
  0.00000000E+00  0.00000000E+00  0.00000000E+00
  0.00000000E+00  0.00000000E+00  0.00000000E+00
  0.00000000E+00  0.00000000E+00  0.00000000E+00
