Structure 1 made from 0-21-1.xsd file
1.0
        8.7007307979       -4.0053990701        0.0000000000
        0.0000000000       11.4527836704       -0.0000000000
        0.0000000000        0.0000000000       19.5241543203
   Ni    S
   36   36
Direct
     0.637935917     0.429045576     0.017725084
     0.728992925     0.611159591     0.145931131
     0.820049932     0.793273606     0.274137178
     0.911106940     0.975387621     0.402343225
     0.456364263     0.065902268     0.231401829
     0.547421271     0.248016283     0.359607876
     0.638478278     0.430130298     0.487813923
     0.365307256     0.883788253     0.103195782
     0.001621587     0.156416914     0.060460433
     0.092678594     0.338530930     0.188666480
     0.183735602     0.520644945     0.316872527
     0.274792609     0.702758960     0.445078574
     0.686051533     0.261070807     0.085470698
     0.777108540     0.443184822     0.213676745
     0.868165548     0.625298837     0.341882792
     0.959222556     0.807412852     0.470088839
     0.595536886     0.080041514     0.427353490
     0.322365864     0.533699469     0.042735349
     0.413422871     0.715813484     0.170941396
     0.504479879     0.897927499     0.299147443
     0.140794210     0.170556160     0.256412094
     0.231851217     0.352670176     0.384618141
     0.049737202     0.988442145     0.128206047
     0.958680194     0.806328130    -0.000000000
     0.084255932     0.793273606     0.274137178
     0.175312940     0.975387621     0.402343225
     0.902141917     0.429045576     0.017725084
     0.993198925     0.611159591     0.145931131
     0.720570263     0.065902268     0.231401829
     0.811627271     0.248016283     0.359607876
     0.902684278     0.430130298     0.487813923
     0.629513256     0.883788253     0.103195782
     0.265827587     0.156416914     0.060460433
     0.356884594     0.338530930     0.188666480
     0.447941602     0.520644945     0.316872527
     0.538998609     0.702758960     0.445078574
     0.013407100     0.579351942     0.264485742
     0.104464108     0.761465957     0.392691789
     0.831293085     0.215123912     0.008073648
     0.922350093     0.397237927     0.136279695
     0.740778439     0.034094619     0.349956440
     0.831835446     0.216208634     0.478162487
     0.558664424     0.669866588     0.093544346
     0.649721431     0.851980603     0.221750393
     0.286035762     0.124609265     0.179015044
     0.377092769     0.306723280     0.307221091
     0.468149777     0.488837295     0.435427138
     0.194978754     0.942495250     0.050808997
     0.134252497     0.157472736     0.434633115
     0.043195490     0.975358721     0.306427068
     0.861081475     0.611130690     0.050014974
     0.952138482     0.793244706     0.178221021
     0.588452813     0.065873367     0.135485672
     0.679509821     0.247987382     0.263691719
     0.770566828     0.430101397     0.391897766
     0.497395805     0.883759352     0.007279625
     0.224767144     0.338502029     0.092750323
     0.315824151     0.520616044     0.220956370
     0.406881159     0.702730059     0.349162417
     0.497938166     0.884844074     0.477368464
     0.494863085     0.215123912     0.008073648
     0.585920093     0.397237927     0.136279695
     0.676977100     0.579351942     0.264485742
     0.768034108     0.761465957     0.392691789
     0.404348439     0.034094619     0.349956440
     0.495405446     0.216208634     0.478162487
     0.222234424     0.669866588     0.093544346
     0.313291431     0.851980603     0.221750393
     0.040662769     0.306723280     0.307221091
     0.131719777     0.488837295     0.435427138
     0.949605762     0.124609265     0.179015044
     0.858548754     0.942495250     0.050808997
