Type_036 Type_136                       
   1.00000000000000     
    16.8846940542000006    0.0000000000000000    0.0000000000000000
     0.0000000000000000    9.5784099999999999    0.0000000000000000
     0.0000000000000000    0.0000000000000000   16.1690871196999986
   Ty   Ty
    36    36
Direct
  0.7800463069997861  0.1452969540038467  0.1205849920014614
  0.2215031104202723  0.6452969539934088  0.0946700919271422
  0.2973302850015926  0.6452969540038467  0.2159689649977494
  0.3930914871062754  0.1452969539934088  0.1255116696679437
  0.4697582780024945  0.1452969540038467  0.2477636230012692
  0.9524743000006950  0.6452969540038467  0.1523796499987995
  0.9685212867941928  0.6452969539934088  0.3146530825726899
  0.1249022930015968  0.1452969540038467  0.1841743080023193
  0.1005266308972779  0.1452969539934088  0.3256651895198459
  0.6421862709974775  0.6452969540038467  0.2795582809986072
  0.9086220083143175  0.0019276388565501  0.1212684555896146
  0.9465781708389542  0.0100793049368306  0.2708682763459080
  0.4023003388036130  0.5182984368073633  0.0417684661292483
  0.4248667550014389  0.5131939539965416  0.1907679470006585
  0.4646593495455420  0.4725316111129061  0.3354928961135215
  0.5661219565789111  0.0184133328391667  0.0657321718988726
  0.5972947470014347  0.0131939539965416  0.2225626049979965
  0.0800107689996281  0.5131939539965416  0.1271786320017156
  0.1127638552992565  0.5013273636125390  0.2911759479645468
  0.2524387620005299  0.0131939539965416  0.1589732889971387
  0.2913362718453527  0.9779124330864946  0.3086405141338986
  0.7755622284872032  0.4277359650714487  0.1197986262341288
  0.7697227400023365  0.5131939539965416  0.2543572630015163
  0.9086220083143175  0.2886662691511432  0.1212684555834329
  0.9465781708330283  0.2805146030708627  0.2708682763459080
  0.4023003387976871  0.7722954711690164  0.0417684661292483
  0.4248667550014389  0.7773999540007139  0.1907679470006585
  0.4646593495455420  0.8180622968947873  0.3354928961135215
  0.5661219565907558  0.2721805751998474  0.0657321718988726
  0.5972947470014347  0.2773999540007139  0.2225626049979965
  0.0800107689996281  0.7773999540007139  0.1271786320017156
  0.1127638552933306  0.7892665443847164  0.2911759479707285
  0.2524387620005299  0.2773999540007139  0.1589732889971387
  0.2913362718453527  0.3126814749316438  0.3086405141277169
  0.7755622284872032  0.8628579429362517  0.1197986262341288
  0.7697227400023365  0.7773999540007139  0.2543572630015163
  0.9862221080374169  0.1452969540038467  0.3602590323545769
  0.9914612059989238  0.1452969540038467  0.1824097040028008
  0.4792841093136033  0.6452969539934088  0.1008387197019616
  0.5087451840007304  0.6452969540038467  0.2777936780009966
  0.6466052199971131  0.1452969540038467  0.1188203880019429
  0.6669235174681134  0.1452969539934088  0.2885161671815268
  0.1163013142966349  0.6452969540038467  0.0341964661150413
  0.1638891979989197  0.6452969540038467  0.2142043620001388
  0.2871693270387610  0.1452969539934088  0.0654535312516558
  0.3363171909998286  0.1452969540038467  0.2459990199974769
  0.8190332129980220  0.6452969540038467  0.1506150459992810
  0.8471851414649620  0.6452969539934088  0.3199345935490285
  0.8182171005736123  0.2912525044762120  0.0358266532372298
  0.8279117279310597  0.3159294279843934  0.2181523438142889
  0.3117770760015972  0.8135119539986277  0.1191157609976301
  0.3499452972457178  0.7928925255339863  0.2976119335603684
  0.4842050690024990  0.3135119539986277  0.1509104190011499
  0.5238300038608017  0.2915273184902318  0.3254140950288615
  0.0014890469983797  0.8135119539986277  0.2462943919974308
  0.9674622915857114  0.8220021168962290  0.0797081940903013
  0.1404455474696675  0.3225829056597078  0.1102907717484740
  0.1739170399992886  0.3135119539986277  0.2780890500009505
  0.6669997694331116  0.8271923182344452  0.1888509847522357
  0.6951616849391655  0.7869965867925899  0.3526481572761639
  0.3117770760015972  0.4770819539986277  0.1191157609976301
  0.3499452972457178  0.4977013824841521  0.2976119335665572
  0.8182171005736123  0.9993414035314814  0.0358266532434115
  0.8279117279369785  0.9746644800128621  0.2181523438204778
  0.0014890469983797  0.4770819539986277  0.2462943919974308
  0.9674622915797926  0.4685917911114714  0.0797081940903013
  0.4842050690024990  0.9770819539986277  0.1509104190011499
  0.5238300038608017  0.9990665895174686  0.3254140950288615
  0.6669997694331116  0.4634015897628103  0.1888509847460469
  0.6951616849391655  0.5035973212046656  0.3526481572761639
  0.1404455474696675  0.9680110023375477  0.1102907717546557
  0.1739170399992886  0.9770819539986277  0.2780890500009505
 
  0.00000000E+00  0.00000000E+00  0.00000000E+00
  0.00000000E+00  0.00000000E+00  0.00000000E+00
  0.00000000E+00  0.00000000E+00  0.00000000E+00
  0.00000000E+00  0.00000000E+00  0.00000000E+00
  0.00000000E+00  0.00000000E+00  0.00000000E+00
  0.00000000E+00  0.00000000E+00  0.00000000E+00
  0.00000000E+00  0.00000000E+00  0.00000000E+00
  0.00000000E+00  0.00000000E+00  0.00000000E+00
  0.00000000E+00  0.00000000E+00  0.00000000E+00
  0.00000000E+00  0.00000000E+00  0.00000000E+00
  0.00000000E+00  0.00000000E+00  0.00000000E+00
  0.00000000E+00  0.00000000E+00  0.00000000E+00
  0.00000000E+00  0.00000000E+00  0.00000000E+00
  0.00000000E+00  0.00000000E+00  0.00000000E+00
  0.00000000E+00  0.00000000E+00  0.00000000E+00
  0.00000000E+00  0.00000000E+00  0.00000000E+00
  0.00000000E+00  0.00000000E+00  0.00000000E+00
  0.00000000E+00  0.00000000E+00  0.00000000E+00
  0.00000000E+00  0.00000000E+00  0.00000000E+00
  0.00000000E+00  0.00000000E+00  0.00000000E+00
  0.00000000E+00  0.00000000E+00  0.00000000E+00
  0.00000000E+00  0.00000000E+00  0.00000000E+00
  0.00000000E+00  0.00000000E+00  0.00000000E+00
  0.00000000E+00  0.00000000E+00  0.00000000E+00
  0.00000000E+00  0.00000000E+00  0.00000000E+00
  0.00000000E+00  0.00000000E+00  0.00000000E+00
  0.00000000E+00  0.00000000E+00  0.00000000E+00
  0.00000000E+00  0.00000000E+00  0.00000000E+00
  0.00000000E+00  0.00000000E+00  0.00000000E+00
  0.00000000E+00  0.00000000E+00  0.00000000E+00
  0.00000000E+00  0.00000000E+00  0.00000000E+00
  0.00000000E+00  0.00000000E+00  0.00000000E+00
  0.00000000E+00  0.00000000E+00  0.00000000E+00
  0.00000000E+00  0.00000000E+00  0.00000000E+00
  0.00000000E+00  0.00000000E+00  0.00000000E+00
  0.00000000E+00  0.00000000E+00  0.00000000E+00
  0.00000000E+00  0.00000000E+00  0.00000000E+00
  0.00000000E+00  0.00000000E+00  0.00000000E+00
  0.00000000E+00  0.00000000E+00  0.00000000E+00
  0.00000000E+00  0.00000000E+00  0.00000000E+00
  0.00000000E+00  0.00000000E+00  0.00000000E+00
  0.00000000E+00  0.00000000E+00  0.00000000E+00
  0.00000000E+00  0.00000000E+00  0.00000000E+00
  0.00000000E+00  0.00000000E+00  0.00000000E+00
  0.00000000E+00  0.00000000E+00  0.00000000E+00
  0.00000000E+00  0.00000000E+00  0.00000000E+00
  0.00000000E+00  0.00000000E+00  0.00000000E+00
  0.00000000E+00  0.00000000E+00  0.00000000E+00
  0.00000000E+00  0.00000000E+00  0.00000000E+00
  0.00000000E+00  0.00000000E+00  0.00000000E+00
  0.00000000E+00  0.00000000E+00  0.00000000E+00
  0.00000000E+00  0.00000000E+00  0.00000000E+00
  0.00000000E+00  0.00000000E+00  0.00000000E+00
  0.00000000E+00  0.00000000E+00  0.00000000E+00
  0.00000000E+00  0.00000000E+00  0.00000000E+00
  0.00000000E+00  0.00000000E+00  0.00000000E+00
  0.00000000E+00  0.00000000E+00  0.00000000E+00
  0.00000000E+00  0.00000000E+00  0.00000000E+00
  0.00000000E+00  0.00000000E+00  0.00000000E+00
  0.00000000E+00  0.00000000E+00  0.00000000E+00
  0.00000000E+00  0.00000000E+00  0.00000000E+00
  0.00000000E+00  0.00000000E+00  0.00000000E+00
  0.00000000E+00  0.00000000E+00  0.00000000E+00
  0.00000000E+00  0.00000000E+00  0.00000000E+00
  0.00000000E+00  0.00000000E+00  0.00000000E+00
  0.00000000E+00  0.00000000E+00  0.00000000E+00
  0.00000000E+00  0.00000000E+00  0.00000000E+00
  0.00000000E+00  0.00000000E+00  0.00000000E+00
  0.00000000E+00  0.00000000E+00  0.00000000E+00
  0.00000000E+00  0.00000000E+00  0.00000000E+00
  0.00000000E+00  0.00000000E+00  0.00000000E+00
  0.00000000E+00  0.00000000E+00  0.00000000E+00
