Type_036 Type_136 
1.0
1.6884694054200001e+01 0.0000000000000000e+00 0.0000000000000000e+00 
0.0000000000000000e+00 9.5784099999999999e+00 0.0000000000000000e+00 
0.0000000000000000e+00 0.0000000000000000e+00 1.6169087119699999e+01 
Type_0 Type_1 
36 36 
Cartesian
  13.1708432418    1.3917137972    1.9497492410
  13.5185882519    1.3758630462    4.6108818814
   5.0203308953    6.1809187972    3.4920210102
   6.4980973949    1.0255594164    2.0271260078
   7.9317248035    1.3917137972    4.0061116054
  16.0822371500    6.1809187972    2.4638398361
  16.3276991129    6.1825421071    5.0693932988
   2.1089370040    1.3917137972    2.9779304313
   1.8481513410    1.3921481837    5.3255301921
   9.6232515112    6.2001536720    2.5898852246
  10.8431187116    6.1809187972    4.5202022005
  15.4222461829    0.0449606869    1.9430677940
  15.9071631124    0.1181478015    4.3975083921
   5.9739128981    6.1315220648    1.1782911616
   7.1737451720    4.9155821009    3.0845435547
   7.8864696282    4.4555410010    5.3881730659
   8.9392933420    1.4105353247    1.4382912436
  10.0851390633    0.1263771009    3.5986341498
   1.3509573556    4.9155821009    2.0563623806
   1.9098249549    4.8163895974    4.6908866261
   4.2623512638    0.1263771009    2.5704529595
   4.9392465450    9.3154929589    4.9354106888
  13.0196703513    4.0834531262    1.8931324105
  12.9965329715    4.9155821009    4.1127247450
  15.3493899635    2.7004684052    1.8785473973
  15.9346020005    2.6630192177    4.3857382159
   7.1813033806    8.2798469635    0.9087144039
   7.1737451720    7.4462554934    3.0845435547
   7.8883586805    7.9291117627    5.3648606781
  10.6269726445    3.3368333814    1.3612125649
  10.0851390633    2.6570504934    3.5986341498
   1.3509573556    7.4462554934    2.0563623806
   1.9093596651    7.5453115607    4.6906452604
   4.2623512638    2.6570504934    2.5704529595
   4.9439287096    3.0694902564    4.9129136217
  12.9965329715    7.4462554934    4.1127247450
  16.7606159023    1.3878833766    5.7822822059
  16.7405191299    1.3917137972    2.9493983955
   8.0063374054    6.1809187972    1.4071266100
   8.5900067834    6.1809187972    4.4916701809
  10.9177313135    1.3917137972    1.9212172052
  11.4543721980    1.3740585403    4.5994898934
   1.7412223315    6.1795101720    0.5589361602
   2.7672189670    6.1809187972    3.4634889906
   4.7587858862    1.4004530002    1.0166661752
   5.6786128752    1.3917137972    3.9775795857
  13.8784409873    5.9867406108    2.5398413551
  14.2792829928    6.2079007210    5.1912703386
  13.7805977830    2.7861091471    0.5338677077
  13.9984422659    3.0029460353    3.4682648862
   5.3920326210    7.9624673216    1.9816313067
   5.9338772022    7.5520832780    4.8588137564
   8.1756544496    3.0029460353    2.4400837121
   8.8992809338    2.7369906852    5.2990662031
   0.0251421030    7.7921510353    3.9823554813
  16.3422509229    7.8626954769    1.2897426196
   2.3633489040    3.0937063482    1.7965456071
   2.9365360112    3.0029460353    4.4964460765
  11.0167821224    7.7640383412    3.1573563591
  11.8006165835    7.5207504583    5.7236591330
   5.2645365520    4.4912075605    2.2010762235
   5.9458830384    4.8291684249    4.8799908653
  13.9155999673    0.0730491574    0.6226218671
  13.9984422659    9.3588915590    3.4682648862
   0.0251421030    4.5696865590    3.9823554813
  16.3337365674    4.4688652066    1.3052995660
   8.1756544496    9.3588915590    2.4400837121
   8.9215954696    0.0592587376    5.3034568028
  11.0870483577    4.5696865590    2.9541742911
  11.7234192411    4.7591345822    5.6820629336
   2.3580085337    9.2701365274    1.7948526202
   2.9365360112    9.3588915590    4.4964460765
