Type_026 Type_126                       
   1.00000000000000     
    11.2564630381999997    0.0000000000000000    0.0000000000000000
     0.0000000000000000    9.5784099999999999    0.0000000000000000
     0.0000000000000000    0.0000000000000000   17.1924924047000012
   Ty   Ty
    26    26
Direct
  0.4393349899979597  0.4638879969953251  0.1628337709973167
  0.4731643447435587  0.4845358602628167  0.3178556478295178
  0.2003274121495764  0.1253700416979413  0.1110461449195128
  0.2130398281824313  0.9686059993360061  0.2379485675899815
  0.4393349899979597  0.1996819970015906  0.1628337709973167
  0.4748756382319854  0.1808112883557911  0.3183124494331011
  0.2378414323144398  0.8353683544450519  0.1065530599565179
  0.2161754401930764  0.6952038801116274  0.2391180845004257
  0.1194487687772821  0.3396954384704785  0.1577786812782591
  0.1830115942822346  0.3319973208392639  0.3011183685144303
  0.4667784943786586  0.7867258518376232  0.0920490301375594
  0.4065656619996147  0.8317849969984579  0.2288389949978651
  0.4673692904730800  0.8314872673230767  0.3623590847710290
  0.9202194307525957  0.4871140238828815  0.1926094328007224
  0.9894539596765739  0.4597532483783837  0.3280702708967382
  0.6632572420895926  0.9675104851013927  0.0988317895976181
  0.7152609639970393  0.9638879969953251  0.2525398899994897
  0.9393349899979597  0.1996819970015906  0.1628337709973167
  0.9795143790711691  0.1883808983328166  0.3216581661300140
  0.6525689120882703  0.6497031623724610  0.1172752502452070
  0.7152609639970393  0.6996819970015906  0.2525398899994897
  0.6306397029963620  0.3317849969984579  0.1391328760015114
  0.6769201231720530  0.3313863281275289  0.2993582877601284
  0.0194238658766963  0.9889252346266204  0.1089506492547869
  0.9065656619996147  0.8317849969984579  0.2288389949978651
  0.8249551589506154  0.8157611461401189  0.3610879953742412
  0.0447894235150983  0.2091611746312836  0.0672712113447744
  0.1114890379989788  0.1635699970036768  0.2389385289986805
  0.3355630629960302  0.6635699970036768  0.1492324090018826
  0.3685145920546020  0.6731319527562505  0.3138918429607500
  0.1114890379989788  0.4999999970036768  0.2389385289986805
  0.0730917064985590  0.3146833365558592  0.3956605156644102
  0.3355630629960302  0.9999999970036768  0.1492324090018826
  0.3706301033852242  0.9911649409453105  0.3135798506461001
  0.2999921510549370  0.3192829308935430  0.1159975950871939
  0.3678888029967027  0.3317849969984579  0.2691183590015811
  0.1550422092514694  0.9679349632350238  0.0297157252290177
  0.0919628440023317  0.8317849969984579  0.1794122389989710
  0.5717667482013198  0.1537606225041515  0.0820465010712681
  0.6114890379989788  0.1635699970036768  0.2389385289986805
  0.5518927486473970  0.3335170447182776  0.3855500903166273
  0.8355630629960302  0.6635699970036768  0.1492324090018826
  0.8890503197885735  0.6443184797267989  0.2999430540501677
  0.5546950348000621  0.4870953454278961  0.0720153716259020
  0.6114890379989788  0.4999999970036768  0.2389385289986805
  0.8355630629960302  0.9999999970036768  0.1492324090018826
  0.8814528221190372  0.9976979726697834  0.3112174511728867
  0.8164869596968600  0.3513245084622625  0.1208011990008089
  0.8678888029967027  0.3317849969984579  0.2691183590015811
  0.6211757489071914  0.7976375449369968  0.0295815619706730
  0.5919628440023317  0.8317849969984579  0.1794122389989710
  0.6467619064704166  0.8326188889074473  0.3427272393785756
 
  0.00000000E+00  0.00000000E+00  0.00000000E+00
  0.00000000E+00  0.00000000E+00  0.00000000E+00
  0.00000000E+00  0.00000000E+00  0.00000000E+00
  0.00000000E+00  0.00000000E+00  0.00000000E+00
  0.00000000E+00  0.00000000E+00  0.00000000E+00
  0.00000000E+00  0.00000000E+00  0.00000000E+00
  0.00000000E+00  0.00000000E+00  0.00000000E+00
  0.00000000E+00  0.00000000E+00  0.00000000E+00
  0.00000000E+00  0.00000000E+00  0.00000000E+00
  0.00000000E+00  0.00000000E+00  0.00000000E+00
  0.00000000E+00  0.00000000E+00  0.00000000E+00
  0.00000000E+00  0.00000000E+00  0.00000000E+00
  0.00000000E+00  0.00000000E+00  0.00000000E+00
  0.00000000E+00  0.00000000E+00  0.00000000E+00
  0.00000000E+00  0.00000000E+00  0.00000000E+00
  0.00000000E+00  0.00000000E+00  0.00000000E+00
  0.00000000E+00  0.00000000E+00  0.00000000E+00
  0.00000000E+00  0.00000000E+00  0.00000000E+00
  0.00000000E+00  0.00000000E+00  0.00000000E+00
  0.00000000E+00  0.00000000E+00  0.00000000E+00
  0.00000000E+00  0.00000000E+00  0.00000000E+00
  0.00000000E+00  0.00000000E+00  0.00000000E+00
  0.00000000E+00  0.00000000E+00  0.00000000E+00
  0.00000000E+00  0.00000000E+00  0.00000000E+00
  0.00000000E+00  0.00000000E+00  0.00000000E+00
  0.00000000E+00  0.00000000E+00  0.00000000E+00
  0.00000000E+00  0.00000000E+00  0.00000000E+00
  0.00000000E+00  0.00000000E+00  0.00000000E+00
  0.00000000E+00  0.00000000E+00  0.00000000E+00
  0.00000000E+00  0.00000000E+00  0.00000000E+00
  0.00000000E+00  0.00000000E+00  0.00000000E+00
  0.00000000E+00  0.00000000E+00  0.00000000E+00
  0.00000000E+00  0.00000000E+00  0.00000000E+00
  0.00000000E+00  0.00000000E+00  0.00000000E+00
  0.00000000E+00  0.00000000E+00  0.00000000E+00
  0.00000000E+00  0.00000000E+00  0.00000000E+00
  0.00000000E+00  0.00000000E+00  0.00000000E+00
  0.00000000E+00  0.00000000E+00  0.00000000E+00
  0.00000000E+00  0.00000000E+00  0.00000000E+00
  0.00000000E+00  0.00000000E+00  0.00000000E+00
  0.00000000E+00  0.00000000E+00  0.00000000E+00
  0.00000000E+00  0.00000000E+00  0.00000000E+00
  0.00000000E+00  0.00000000E+00  0.00000000E+00
  0.00000000E+00  0.00000000E+00  0.00000000E+00
  0.00000000E+00  0.00000000E+00  0.00000000E+00
  0.00000000E+00  0.00000000E+00  0.00000000E+00
  0.00000000E+00  0.00000000E+00  0.00000000E+00
  0.00000000E+00  0.00000000E+00  0.00000000E+00
  0.00000000E+00  0.00000000E+00  0.00000000E+00
  0.00000000E+00  0.00000000E+00  0.00000000E+00
  0.00000000E+00  0.00000000E+00  0.00000000E+00
  0.00000000E+00  0.00000000E+00  0.00000000E+00
