Type_048 Type_148                       
   1.00000000000000     
     6.2785599999999997    0.0000000000000000    0.0000000000000000
     2.0928533957000002   11.0601955134000001    0.0000000000000000
     0.0000000000000000    0.0000000000000000   28.8109244581000006
   Ty   Ty
    48    48
Direct
  0.2563094379991355  0.0164585909968267  0.0878372849986278
  0.2563094379991355  0.0164585909968267  0.4202948580011849
  0.0063094380010256  0.2664585829996824  0.2540660709983626
  0.0063094380010256  0.2664585829996824  0.5865236440009198
  0.2855036299437188  0.9648919993295308  0.0052413442623021
  0.2563094379991355  0.0164585909968267  0.3324575719994698
  0.0063094380010256  0.2664585829996824  0.1662287859997349
  0.0063094380010256  0.2664585829996824  0.4986863579992047
  0.1922055749494120  0.2986702907283885  0.0963283029649418
  0.1902579379989220  0.2146130849969339  0.3763762150003274
  0.4402579380007481  0.4646130780033815  0.2101474290005925
  0.4402579380007481  0.4646130780033815  0.5426050010000623
  0.7563094379991355  0.0164585909968267  0.0878372849986278
  0.7563094379991355  0.0164585909968267  0.4202948580011849
  0.5063094380010256  0.2664585829996824  0.2540660709983626
  0.5063094380010256  0.2664585829996824  0.5865236440009198
  0.7855036299437188  0.9648919993295308  0.0052413442623021
  0.7563094379991355  0.0164585909968267  0.3324575719994698
  0.5063094380010256  0.2664585829996824  0.1662287859997349
  0.5063094380010256  0.2664585829996824  0.4986863579992047
  0.6922055749494120  0.2986702907283885  0.0963283029649418
  0.6902579379989220  0.2146130849969339  0.3763762150003274
  0.9402579380007481  0.4646130780033815  0.2101474290005925
  0.9402579380007481  0.4646130780033815  0.5426050010000623
  0.2563094380071007  0.5164585909968267  0.0878372849986278
  0.2563094380071007  0.5164585909968267  0.4202948580011849
  0.0063094380089836  0.7664585829996824  0.2540660709983626
  0.0063094380089836  0.7664585829996824  0.5865236440009198
  0.2855036299357536  0.4648919993295308  0.0052413442623021
  0.2563094380071007  0.5164585909968267  0.3324575719994698
  0.0063094380089836  0.7664585829996824  0.1662287859997349
  0.0063094380089836  0.7664585829996824  0.4986863579992047
  0.1922055749573772  0.7986702907283885  0.0963283029649418
  0.1902579380068872  0.7146130849969339  0.3763762150003274
  0.4402579380087133  0.9646130780033815  0.2101474290005925
  0.4402579380087133  0.9646130780033815  0.5426050010000623
  0.7563094380071007  0.5164585909968267  0.0878372849986278
  0.7563094380071007  0.5164585909968267  0.4202948580011849
  0.5063094380089836  0.7664585829996824  0.2540660709983626
  0.5063094380089836  0.7664585829996824  0.5865236440009198
  0.7855036299357536  0.4648919993295308  0.0052413442623021
  0.7563094380071007  0.5164585909968267  0.3324575719994698
  0.5063094380089836  0.7664585829996824  0.1662287859997349
  0.5063094380089836  0.7664585829996824  0.4986863579992047
  0.6922055749573772  0.7986702907283885  0.0963283029649418
  0.6902579380068872  0.7146130849969339  0.3763762150003274
  0.9402579380087133  0.9646130780033815  0.2101474290005925
  0.9402579380087133  0.9646130780033815  0.5426050010000623
  0.4684041049957912  0.1666175859972228  0.3204518640013418
  0.2739481528903909  0.2134213713708917  0.6289384962899263
  0.2184041049976173  0.4166175790036704  0.1542230780016070
  0.2184041049976173  0.4166175790036704  0.4866806510006967
  0.4684041049957912  0.1666175859972228  0.0998429930002231
  0.4684041049957912  0.1666175859972228  0.4323005649996929
  0.2184041049976173  0.4166175790036704  0.2660717789999580
  0.2094687412926248  0.4056142800608526  0.5843318054158075
  0.0525116050000562  0.4142950790018531  0.0439186430008576
  0.0525116050000562  0.4142950790018531  0.3763762150003274
  0.3025116049982302  0.1642950859953984  0.2101474290005925
  0.3025116049982302  0.1642950859953984  0.5426050010000623
  0.9684041049957912  0.1666175859972228  0.3204518640013418
  0.7739481528903909  0.2134213713708917  0.6289384962899263
  0.7184041049976173  0.4166175790036704  0.1542230780016070
  0.7184041049976173  0.4166175790036704  0.4866806510006967
  0.9684041049957912  0.1666175859972228  0.0998429930002231
  0.9684041049957912  0.1666175859972228  0.4323005649996929
  0.7184041049976173  0.4166175790036704  0.2660717789999580
  0.7094687412926248  0.4056142800608526  0.5843318054158075
  0.5525116050000562  0.4142950790018531  0.0439186430008576
  0.5525116050000562  0.4142950790018531  0.3763762150003274
  0.8025116049982302  0.1642950859953984  0.2101474290005925
  0.8025116049982302  0.1642950859953984  0.5426050010000623
  0.4684041050037564  0.6666175859972228  0.3204518640013418
  0.2739481528983561  0.7134213713708917  0.6289384962899263
  0.2184041050085952  0.9166175789946323  0.1542230780016070
  0.2184041050085952  0.9166175789946323  0.4866806510006967
  0.4684041050037564  0.6666175859972228  0.0998429930002231
  0.4684041050037564  0.6666175859972228  0.4323005649996929
  0.2184041050085952  0.9166175789946323  0.2660717789999580
  0.2094687413005900  0.9056142800608526  0.5843318054158075
  0.0525116050080214  0.9142950790018531  0.0439186430008576
  0.0525116050080214  0.9142950790018531  0.3763762150003274
  0.3025116050061953  0.6642950859953984  0.2101474290005925
  0.3025116050061953  0.6642950859953984  0.5426050010000623
  0.9684041050037564  0.6666175859972228  0.3204518640013418
  0.7739481528983561  0.7134213713708917  0.6289384962899263
  0.7184041050085952  0.9166175789946323  0.1542230780016070
  0.7184041050085952  0.9166175789946323  0.4866806510006967
  0.9684041050037564  0.6666175859972228  0.0998429930002231
  0.9684041050037564  0.6666175859972228  0.4323005649996929
  0.7184041050085952  0.9166175789946323  0.2660717789999580
  0.7094687413005900  0.9056142800608526  0.5843318054158075
  0.5525116050080214  0.9142950790018531  0.0439186430008576
  0.5525116050080214  0.9142950790018531  0.3763762150003274
  0.8025116050061953  0.6642950859953984  0.2101474290005925
  0.8025116050061953  0.6642950859953984  0.5426050010000623
 
  0.00000000E+00  0.00000000E+00  0.00000000E+00
  0.00000000E+00  0.00000000E+00  0.00000000E+00
  0.00000000E+00  0.00000000E+00  0.00000000E+00
  0.00000000E+00  0.00000000E+00  0.00000000E+00
  0.00000000E+00  0.00000000E+00  0.00000000E+00
  0.00000000E+00  0.00000000E+00  0.00000000E+00
  0.00000000E+00  0.00000000E+00  0.00000000E+00
  0.00000000E+00  0.00000000E+00  0.00000000E+00
  0.00000000E+00  0.00000000E+00  0.00000000E+00
  0.00000000E+00  0.00000000E+00  0.00000000E+00
  0.00000000E+00  0.00000000E+00  0.00000000E+00
  0.00000000E+00  0.00000000E+00  0.00000000E+00
  0.00000000E+00  0.00000000E+00  0.00000000E+00
  0.00000000E+00  0.00000000E+00  0.00000000E+00
  0.00000000E+00  0.00000000E+00  0.00000000E+00
  0.00000000E+00  0.00000000E+00  0.00000000E+00
  0.00000000E+00  0.00000000E+00  0.00000000E+00
  0.00000000E+00  0.00000000E+00  0.00000000E+00
  0.00000000E+00  0.00000000E+00  0.00000000E+00
  0.00000000E+00  0.00000000E+00  0.00000000E+00
  0.00000000E+00  0.00000000E+00  0.00000000E+00
  0.00000000E+00  0.00000000E+00  0.00000000E+00
  0.00000000E+00  0.00000000E+00  0.00000000E+00
  0.00000000E+00  0.00000000E+00  0.00000000E+00
  0.00000000E+00  0.00000000E+00  0.00000000E+00
  0.00000000E+00  0.00000000E+00  0.00000000E+00
  0.00000000E+00  0.00000000E+00  0.00000000E+00
  0.00000000E+00  0.00000000E+00  0.00000000E+00
  0.00000000E+00  0.00000000E+00  0.00000000E+00
  0.00000000E+00  0.00000000E+00  0.00000000E+00
  0.00000000E+00  0.00000000E+00  0.00000000E+00
  0.00000000E+00  0.00000000E+00  0.00000000E+00
  0.00000000E+00  0.00000000E+00  0.00000000E+00
  0.00000000E+00  0.00000000E+00  0.00000000E+00
  0.00000000E+00  0.00000000E+00  0.00000000E+00
  0.00000000E+00  0.00000000E+00  0.00000000E+00
  0.00000000E+00  0.00000000E+00  0.00000000E+00
  0.00000000E+00  0.00000000E+00  0.00000000E+00
  0.00000000E+00  0.00000000E+00  0.00000000E+00
  0.00000000E+00  0.00000000E+00  0.00000000E+00
  0.00000000E+00  0.00000000E+00  0.00000000E+00
  0.00000000E+00  0.00000000E+00  0.00000000E+00
  0.00000000E+00  0.00000000E+00  0.00000000E+00
  0.00000000E+00  0.00000000E+00  0.00000000E+00
  0.00000000E+00  0.00000000E+00  0.00000000E+00
  0.00000000E+00  0.00000000E+00  0.00000000E+00
  0.00000000E+00  0.00000000E+00  0.00000000E+00
  0.00000000E+00  0.00000000E+00  0.00000000E+00
  0.00000000E+00  0.00000000E+00  0.00000000E+00
  0.00000000E+00  0.00000000E+00  0.00000000E+00
  0.00000000E+00  0.00000000E+00  0.00000000E+00
  0.00000000E+00  0.00000000E+00  0.00000000E+00
  0.00000000E+00  0.00000000E+00  0.00000000E+00
  0.00000000E+00  0.00000000E+00  0.00000000E+00
  0.00000000E+00  0.00000000E+00  0.00000000E+00
  0.00000000E+00  0.00000000E+00  0.00000000E+00
  0.00000000E+00  0.00000000E+00  0.00000000E+00
  0.00000000E+00  0.00000000E+00  0.00000000E+00
  0.00000000E+00  0.00000000E+00  0.00000000E+00
  0.00000000E+00  0.00000000E+00  0.00000000E+00
  0.00000000E+00  0.00000000E+00  0.00000000E+00
  0.00000000E+00  0.00000000E+00  0.00000000E+00
  0.00000000E+00  0.00000000E+00  0.00000000E+00
  0.00000000E+00  0.00000000E+00  0.00000000E+00
  0.00000000E+00  0.00000000E+00  0.00000000E+00
  0.00000000E+00  0.00000000E+00  0.00000000E+00
  0.00000000E+00  0.00000000E+00  0.00000000E+00
  0.00000000E+00  0.00000000E+00  0.00000000E+00
  0.00000000E+00  0.00000000E+00  0.00000000E+00
  0.00000000E+00  0.00000000E+00  0.00000000E+00
  0.00000000E+00  0.00000000E+00  0.00000000E+00
  0.00000000E+00  0.00000000E+00  0.00000000E+00
  0.00000000E+00  0.00000000E+00  0.00000000E+00
  0.00000000E+00  0.00000000E+00  0.00000000E+00
  0.00000000E+00  0.00000000E+00  0.00000000E+00
  0.00000000E+00  0.00000000E+00  0.00000000E+00
  0.00000000E+00  0.00000000E+00  0.00000000E+00
  0.00000000E+00  0.00000000E+00  0.00000000E+00
  0.00000000E+00  0.00000000E+00  0.00000000E+00
  0.00000000E+00  0.00000000E+00  0.00000000E+00
  0.00000000E+00  0.00000000E+00  0.00000000E+00
  0.00000000E+00  0.00000000E+00  0.00000000E+00
  0.00000000E+00  0.00000000E+00  0.00000000E+00
  0.00000000E+00  0.00000000E+00  0.00000000E+00
  0.00000000E+00  0.00000000E+00  0.00000000E+00
  0.00000000E+00  0.00000000E+00  0.00000000E+00
  0.00000000E+00  0.00000000E+00  0.00000000E+00
  0.00000000E+00  0.00000000E+00  0.00000000E+00
  0.00000000E+00  0.00000000E+00  0.00000000E+00
  0.00000000E+00  0.00000000E+00  0.00000000E+00
  0.00000000E+00  0.00000000E+00  0.00000000E+00
  0.00000000E+00  0.00000000E+00  0.00000000E+00
  0.00000000E+00  0.00000000E+00  0.00000000E+00
  0.00000000E+00  0.00000000E+00  0.00000000E+00
  0.00000000E+00  0.00000000E+00  0.00000000E+00
  0.00000000E+00  0.00000000E+00  0.00000000E+00
