Type_048 Type_148 
1.0
1.1256463038200000e+01 0.0000000000000000e+00 0.0000000000000000e+00 
5.0445621212000002e+00 1.0062820337100000e+01 0.0000000000000000e+00 
0.0000000000000000e+00 0.0000000000000000e+00 2.1744231843600001e+01 
Type_0 Type_1 
48 48 
Cartesian
   5.3522814389    4.8178807436    5.5084225035
   5.9359508116    3.8723794831    8.4444804618
   6.5642102028    2.8546477062   10.9827018198
   2.3890163114    0.6349829402    2.8687136989
   0.8230753008    0.5458034819   10.2713456189
   4.7686120527    3.3545316644    1.7966404224
   5.3522814305    2.4090304139    4.7326983807
   5.9359508195    1.4635291635    7.6687563389
   1.8774643416    3.7383591286    4.7326983807
   2.4611337307    2.7928578782    7.6687563389
   3.0390801734    1.9174804000   10.2746785538
   6.9220263192    4.6838603892    1.7966404224
  10.9805129580    4.8178807436    5.5084225035
  11.5641823307    3.8723794831    8.4444804618
  11.6918644268    3.6772498449   10.8157851041
   7.8745625840    0.7319719765    2.5723645453
   6.4552258993    0.5030111817   10.2749517359
  10.4538090412    3.3286971103    2.2132358034
  10.9805129496    2.4090304139    4.7326983807
  11.5641823386    1.4635291635    7.6687563389
   7.5056958608    3.7383591286    4.7326983807
   8.0893652498    2.7928578782    7.6687563389
   8.7153054823    1.8981680424   10.2749863013
   2.3380569475    4.3756107970    2.5623721304
   7.8745624994    9.8492909121    5.5084225035
   8.4582318722    8.9037896516    8.4444804618
   8.5753731754    8.7023259668   10.8157368252
   4.7686121255    5.7633821450    2.5723645453
   3.2580228274    5.5755939986   10.1331027022
   7.1440890404    7.5714311667    2.4723942686
   7.8745624911    7.4404405824    4.7326983807
   8.4582318801    6.4949393320    7.6687563389
   4.3997454022    8.7697692972    4.7326983807
   4.9834147912    7.8242680467    7.6687563389
   5.6134665981    7.0296397034   10.1330823589
   9.4443073798    9.7152705577    1.7966404224
  13.5027940186    9.8492909121    5.5084225035
  14.0864633913    8.9037896516    8.4444804618
  14.1365094032    8.8227186380   10.7815621969
  10.2342341386    5.7911676980    3.1689724011
   8.9818034884    5.5859875541   10.2748450478
  12.9692387838    8.3727967288    2.1893620454
  13.5027940102    7.4404405824    4.7326983807
  14.0864633992    6.4949393320    7.6687563389
  10.0279769213    8.7697692972    4.7326983807
  10.6116463104    7.8242680467    7.6687563389
  11.2010893657    6.9522701867   10.2715064224
  15.0786919475    9.6773681905    2.1914085020
   1.6618955858    1.6787142544    5.8721159165
   2.2455649698    0.7332129939    8.8081738748
   6.1183227091    3.5905570064    0.3310354360
   6.7064575583    2.6242155049    2.9360579583
   2.2455649706    3.8005525507    9.7959518563
   7.2901269369    4.7460538113    6.8598938980
   3.7022645383    1.5885423904    1.4805402407
   4.1841765742    0.6601450441    3.9238359397
   3.6118985700    4.9073337981    1.0916529837
   3.9643806934    3.9988377890    3.9238359397
   4.5480500712    3.0533365386    6.8598938980
   5.1317194552    2.1078352781    9.7959518563
   7.2901271049    1.6787142544    5.8721159165
   7.8737964889    0.7332129939    8.8081738748
  12.3346890774    2.6242155049    2.9360579583
  10.6730594254    5.3246971983   11.4507909269
   7.8737964897    3.8005525507    9.7959518563
  12.9183584560    4.7460538113    6.8598938980
   9.4778054818    1.6082420071    1.5601276093
   9.8124080933    0.6601450441    3.9238359397
   9.0845412446    4.8537983105    1.6304830547
   9.5926122126    3.9988377890    3.9238359397
  10.1762815903    3.0533365386    6.8598938980
  10.7599509743    2.1078352781    9.7959518563
   4.1841766464    6.7101244229    5.8721159165
   4.7678460304    5.7646231624    8.8081738748
   7.4920777536    9.2858334970    1.3471151729
   9.2287386189    7.6556256734    2.9360579583
   2.5146501010    0.2885619423   11.4507745137
   4.7678460312    8.8319627193    9.7959518563
   9.8124079975    9.7774639798    6.8598938980
   6.0909750208    6.4317439507    1.1371907321
   6.7064576348    5.6915552127    3.9238359397
   6.4866617540    9.0302479576    3.9238359397
   7.0703311318    8.0847467071    6.8598938980
   7.6540005158    7.1392454466    9.7959518563
   9.8124081655    6.7101244229    5.8721159165
  10.3960775495    5.7646231624    8.8081738748
  13.8979653962    9.2389818896    0.6235677372
  14.8569701380    7.6556256734    2.9360579583
   8.0959175748    0.3733412663   11.5435104373
  10.3960775503    8.8319627193    9.7959518563
  15.4406395166    9.7774639798    6.8598938980
  12.3346891539    5.6915552127    3.9238359397
  11.4753723828    9.7566956662    1.4882589031
  12.1148932731    9.0302479576    3.9238359397
  12.6985626509    8.0847467071    6.8598938980
  13.2822320349    7.1392454466    9.7959518563
