Type_052 Type_152 
1.0
1.1256463038200000e+01 0.0000000000000000e+00 0.0000000000000000e+00 
5.0445621212000002e+00 1.0062820337100000e+01 0.0000000000000000e+00 
0.0000000000000000e+00 0.0000000000000000e+00 2.2883649387500000e+01 
Type_0 Type_1 
52 52 
Cartesian
   5.3522814389    4.8178807436    6.6478400577
   5.9359508116    3.8723794831    9.5838980192
   6.2288126966    3.3985368563   12.0994747097
   2.2463310649    0.7319719765    3.7117820963
   0.7022334822    0.4775929842   11.2660567848
   4.7686120527    3.3545316644    2.9360579615
   5.3522814305    2.4090304139    5.8721159229
   5.9359508195    1.4635291635    8.8081738844
   1.8774643416    3.7383591286    5.8721159229
   2.4611337307    2.7928578782    8.8081738844
   3.0005015550    1.9595507869   11.3980132618
   6.9220263192    4.6838603892    2.9360579615
  10.9805129580    4.8178807436    6.6478400577
  11.5641823307    3.8723794831    9.5838980192
  11.8570481368    3.3985296316   12.0994761936
   7.8745625840    0.7319719765    3.7117820963
   6.3304658836    0.4775944391   11.2660583799
  10.3968435718    3.3545316644    2.9360579615
  10.9805129496    2.4090304139    5.8721159229
  11.5641823386    1.4635291635    8.8081738844
   7.5056958608    3.7383591286    5.8721159229
   8.0893652498    2.7928578782    8.8081738844
   8.6287316709    1.9595508630   11.3980137310
  12.5502578383    4.6838603892    2.9360579615
   8.1975218782    0.3304108424    1.2938029704
   7.8745624994    9.8492909121    6.6478400577
   8.4582318722    8.9037896516    9.5838980192
   4.7686121255    5.7633821450    3.7117820963
   3.3611456874    5.5893093479   11.3882608411
   2.4400590463    0.3996854902    1.3364963591
   7.2908931133    8.3859418329    2.9360579615
   7.8745624911    7.4404405824    5.8721159229
   8.4582318801    6.4949393320    8.8081738844
   4.3997454022    8.7697692972    5.8721159229
   4.9834147912    7.8242680467    8.8081738844
   5.7178161322    6.9461330653   11.2839806128
   9.4443073798    9.7152705577    2.9360579615
   5.0661166168    5.2474149999    1.3343346012
  13.5027940186    9.8492909121    6.6478400577
  14.0864633913    8.9037896516    9.5838980192
   9.7230090649    7.2931581429    2.0307566461
  10.3968436446    5.7633821450    3.7117820963
   8.9893825764    5.5893040315   11.3882697786
  11.9410288603    8.3151842485    0.8460933361
  12.9191246324    8.3859418329    2.9360579615
  13.5027940102    7.4404405824    5.8721159229
  14.0864633992    6.4949393320    8.8081738844
  10.0279769213    8.7697692972    5.8721159229
  10.6116463104    7.8242680467    8.8081738844
  11.3460454787    6.9461277551   11.2839911336
  15.0725388989    9.7152705577    2.9360579615
  10.6919283947    5.1307462994    1.1990113823
   1.6618955858    1.6787142544    7.0115334673
   2.2455649698    0.7332129939    9.9475914287
   6.1366430774    3.5513752437    1.4057572669
   6.7064575583    2.6242155049    4.0754755058
   5.1852447459    5.2228235633   12.3827157361
   2.2455649706    3.8005525507   10.9353694178
   7.2901269369    4.7460538113    7.9993114563
   3.6922764630    1.5885646944    2.4291152947
   4.1841765742    0.6601450441    5.0632534949
   3.3613587420    4.8487234715    2.4180633098
   3.9643806934    3.9988377890    5.0632534949
   4.5480500712    3.0533365386    7.9993114563
   5.1317194552    2.1078352781   10.9353694178
   7.2901271049    1.6787142544    7.0115334673
   7.8737964889    0.7332129939    9.9475914287
  11.8131597207    3.4730588114    1.4426651092
  12.3346890774    2.6242155049    4.0754755058
  10.8134790511    5.2228177261   12.3827215809
   7.8737964897    3.8005525507   10.9353694178
  12.9183584560    4.7460538113    7.9993114563
   9.3420353293    1.5829726435    2.4551851871
   9.8124080933    0.6601450441    5.0632534949
   8.9918096668    4.9934005154    2.3552248952
   9.5926122126    3.9988377890    5.0632534949
  10.1762815903    3.0533365386    7.9993114563
  10.7599509743    2.1078352781   10.9353694178
   4.1841766464    6.7101244229    7.0115334673
   4.7678460304    5.7646231624    9.9475914287
   8.5218567201    8.7407026653    1.2497569446
   9.2287386189    7.6556256734    4.0754755058
   1.5052782296    1.6523841137   12.7660233911
   4.7195772936    8.7309077362   10.6719235789
   9.8124079975    9.7774639798    7.9993114563
   6.1966391347    6.6025667697    2.4017402980
   6.7064576348    5.6915552127    5.0632534949
   5.8590358975    9.8707610409    2.4405664151
   6.4866617540    9.0302479576    5.0632534949
   7.0703311318    8.0847467071    7.9993114563
   7.7548700040    7.1635802314   10.6685188665
   9.8124081655    6.7101244229    7.0115334673
  10.3960775495    5.7646231624    9.9475914287
  14.0604779803    8.5545207700    1.2378821155
  14.8569701380    7.6556256734    4.0754755058
   7.1335096231    1.6523869533   12.7660213840
  10.3478113437    8.7309047296   10.6719247917
  15.4406395166    9.7774639798    7.9993114563
  11.7510197812    6.6370564732    2.1271955334
  12.3346891539    5.6915552127    5.0632534949
  11.4954454351    9.8342777932    2.2672177805
  12.1148932731    9.0302479576    5.0632534949
  12.6985626509    8.0847467071    7.9993114563
  13.3830940402    7.1635832549   10.6685163084
