Structure 1 made from -112-2.xsd file   
   1.00000000000000     
    16.8846940542000006    0.0000000000000000    0.0000000000000000
     0.0000000000000000    9.5784099999999999    0.0000000000000000
     0.0000000000000000    0.0000000000000000   15.7901416898000004
   Ni   S 
    36    36
Direct
  0.7800463069999992  0.1452969540000026  0.0994800320000024
  0.8146142639999994  0.1452969540000026  0.2948261929999987
  0.2627623280000009  0.6452969540000026  0.0018069520000026
  0.2973302850000010  0.6452969540000026  0.1971531129999988
  0.4351903210000003  0.1452969540000026  0.0343646449999966
  0.4697582780000005  0.1452969540000026  0.2297108059999999
  0.9524742999999987  0.6452969540000026  0.1320377260000001
  0.9870422569999988  0.6452969540000026  0.3273838870000034
  0.1249022929999981  0.1452969540000026  0.1645954190000012
  0.1594702499999983  0.1452969540000026  0.3599415799999974
  0.6076183139999998  0.6452969540000026  0.0669223390000013
  0.6421862709999999  0.6452969540000026  0.2622684999999976
  0.9075827759999981  0.0131939540000019  0.0736742189999973
  0.9421507329999983  0.0131939540000019  0.2690203800000006
  0.4248667549999965  0.5131939540000019  0.1713472989999971
  0.4594347119999966  0.5131939540000019  0.3666934600000005
  0.5627267899999993  0.0131939540000019  0.0085588319999985
  0.5972947469999994  0.0131939540000019  0.2039049930000019
  0.0800107689999976  0.5131939540000019  0.1062319119999984
  0.1145787259999977  0.5131939540000019  0.3015780730000017
  0.2524387619999970  0.0131939540000019  0.1387896060000031
  0.2870067189999972  0.0131939540000019  0.3341357660000028
  0.7351547829999987  0.5131939540000019  0.0411165249999996
  0.7697227399999989  0.5131939540000019  0.2364626860000030
  0.9075827759999981  0.2773999540000034  0.0736742189999973
  0.9421507329999983  0.2773999540000034  0.2690203800000006
  0.4248667549999965  0.7773999540000034  0.1713472989999971
  0.4594347119999966  0.7773999540000034  0.3666934600000005
  0.5627267899999993  0.2773999540000034  0.0085588319999985
  0.5972947469999994  0.2773999540000034  0.2039049930000019
  0.0800107689999976  0.7773999540000034  0.1062319119999984
  0.1145787259999977  0.7773999540000034  0.3015780730000017
  0.2524387619999970  0.2773999540000034  0.1387896060000031
  0.2870067189999972  0.2773999540000034  0.3341357660000028
  0.7351547829999987  0.7773999540000034  0.0411165249999996
  0.7697227399999989  0.7773999540000034  0.2364626860000030
  0.0260291629999969  0.1452969540000026  0.3581346280000020
  0.9914612059999968  0.1452969540000026  0.1627884669999986
  0.4741772269999984  0.6452969540000026  0.0651153869999987
  0.5087451839999986  0.6452969540000026  0.2604615480000021
  0.6466052199999979  0.1452969540000026  0.0976730799999999
  0.6811731769999980  0.1452969540000026  0.2930192410000032
  0.1293212409999995  0.6452969540000026  0.0000000000000000
  0.1638891979999997  0.6452969540000026  0.1953461610000033
  0.3017492339999990  0.1452969540000026  0.0325576930000011
  0.3363171909999991  0.1452969540000026  0.2279038539999974
  0.8190332129999973  0.6452969540000026  0.1302307739999975
  0.8536011699999975  0.6452969540000026  0.3255769350000008
  0.7944930970000001  0.3135119539999991  0.0003024609999969
  0.8290610549999968  0.3135119539999991  0.1956486220000002
  0.3117770759999985  0.8135119539999991  0.0979755409999967
  0.3463450329999986  0.8135119539999991  0.2933217020000001
  0.4842050689999979  0.3135119539999991  0.1305332350000015
  0.5187730259999981  0.3135119539999991  0.3258793959999977
  0.0014890469999997  0.8135119539999991  0.2282063150000013
  0.9669210899999996  0.8135119539999991  0.0328601539999980
  0.1393490829999990  0.3135119539999991  0.0654178480000027
  0.1739170399999992  0.3135119539999991  0.2607640089999990
  0.6566330619999974  0.8135119539999991  0.1630909280000026
  0.6912010189999975  0.8135119539999991  0.3584370889999988
  0.3117770759999985  0.4770819539999991  0.0979755409999967
  0.3463450329999986  0.4770819539999991  0.2933217020000001
  0.7944930970000001  0.9770819539999991  0.0003024609999969
  0.8290610549999968  0.9770819539999991  0.1956486220000002
  0.0014890469999997  0.4770819539999991  0.2282063150000013
  0.9669210899999996  0.4770819539999991  0.0328601539999980
  0.4842050689999979  0.9770819539999991  0.1305332350000015
  0.5187730259999981  0.9770819539999991  0.3258793959999977
  0.6566330619999974  0.4770819539999991  0.1630909280000026
  0.6912010189999975  0.4770819539999991  0.3584370889999988
  0.1393490829999990  0.9770819539999991  0.0654178480000027
  0.1739170399999992  0.9770819539999991  0.2607640089999990
 
  0.00000000E+00  0.00000000E+00  0.00000000E+00
  0.00000000E+00  0.00000000E+00  0.00000000E+00
  0.00000000E+00  0.00000000E+00  0.00000000E+00
  0.00000000E+00  0.00000000E+00  0.00000000E+00
  0.00000000E+00  0.00000000E+00  0.00000000E+00
  0.00000000E+00  0.00000000E+00  0.00000000E+00
  0.00000000E+00  0.00000000E+00  0.00000000E+00
  0.00000000E+00  0.00000000E+00  0.00000000E+00
  0.00000000E+00  0.00000000E+00  0.00000000E+00
  0.00000000E+00  0.00000000E+00  0.00000000E+00
  0.00000000E+00  0.00000000E+00  0.00000000E+00
  0.00000000E+00  0.00000000E+00  0.00000000E+00
  0.00000000E+00  0.00000000E+00  0.00000000E+00
  0.00000000E+00  0.00000000E+00  0.00000000E+00
  0.00000000E+00  0.00000000E+00  0.00000000E+00
  0.00000000E+00  0.00000000E+00  0.00000000E+00
  0.00000000E+00  0.00000000E+00  0.00000000E+00
  0.00000000E+00  0.00000000E+00  0.00000000E+00
  0.00000000E+00  0.00000000E+00  0.00000000E+00
  0.00000000E+00  0.00000000E+00  0.00000000E+00
  0.00000000E+00  0.00000000E+00  0.00000000E+00
  0.00000000E+00  0.00000000E+00  0.00000000E+00
  0.00000000E+00  0.00000000E+00  0.00000000E+00
  0.00000000E+00  0.00000000E+00  0.00000000E+00
  0.00000000E+00  0.00000000E+00  0.00000000E+00
  0.00000000E+00  0.00000000E+00  0.00000000E+00
  0.00000000E+00  0.00000000E+00  0.00000000E+00
  0.00000000E+00  0.00000000E+00  0.00000000E+00
  0.00000000E+00  0.00000000E+00  0.00000000E+00
  0.00000000E+00  0.00000000E+00  0.00000000E+00
  0.00000000E+00  0.00000000E+00  0.00000000E+00
  0.00000000E+00  0.00000000E+00  0.00000000E+00
  0.00000000E+00  0.00000000E+00  0.00000000E+00
  0.00000000E+00  0.00000000E+00  0.00000000E+00
  0.00000000E+00  0.00000000E+00  0.00000000E+00
  0.00000000E+00  0.00000000E+00  0.00000000E+00
  0.00000000E+00  0.00000000E+00  0.00000000E+00
  0.00000000E+00  0.00000000E+00  0.00000000E+00
  0.00000000E+00  0.00000000E+00  0.00000000E+00
  0.00000000E+00  0.00000000E+00  0.00000000E+00
  0.00000000E+00  0.00000000E+00  0.00000000E+00
  0.00000000E+00  0.00000000E+00  0.00000000E+00
  0.00000000E+00  0.00000000E+00  0.00000000E+00
  0.00000000E+00  0.00000000E+00  0.00000000E+00
  0.00000000E+00  0.00000000E+00  0.00000000E+00
  0.00000000E+00  0.00000000E+00  0.00000000E+00
  0.00000000E+00  0.00000000E+00  0.00000000E+00
  0.00000000E+00  0.00000000E+00  0.00000000E+00
  0.00000000E+00  0.00000000E+00  0.00000000E+00
  0.00000000E+00  0.00000000E+00  0.00000000E+00
  0.00000000E+00  0.00000000E+00  0.00000000E+00
  0.00000000E+00  0.00000000E+00  0.00000000E+00
  0.00000000E+00  0.00000000E+00  0.00000000E+00
  0.00000000E+00  0.00000000E+00  0.00000000E+00
  0.00000000E+00  0.00000000E+00  0.00000000E+00
  0.00000000E+00  0.00000000E+00  0.00000000E+00
  0.00000000E+00  0.00000000E+00  0.00000000E+00
  0.00000000E+00  0.00000000E+00  0.00000000E+00
  0.00000000E+00  0.00000000E+00  0.00000000E+00
  0.00000000E+00  0.00000000E+00  0.00000000E+00
  0.00000000E+00  0.00000000E+00  0.00000000E+00
  0.00000000E+00  0.00000000E+00  0.00000000E+00
  0.00000000E+00  0.00000000E+00  0.00000000E+00
  0.00000000E+00  0.00000000E+00  0.00000000E+00
  0.00000000E+00  0.00000000E+00  0.00000000E+00
  0.00000000E+00  0.00000000E+00  0.00000000E+00
  0.00000000E+00  0.00000000E+00  0.00000000E+00
  0.00000000E+00  0.00000000E+00  0.00000000E+00
  0.00000000E+00  0.00000000E+00  0.00000000E+00
  0.00000000E+00  0.00000000E+00  0.00000000E+00
  0.00000000E+00  0.00000000E+00  0.00000000E+00
  0.00000000E+00  0.00000000E+00  0.00000000E+00
