Structure 1 made from -112-2.xsd file
1.0
       16.8846940542        0.0000000000        0.0000000000
        0.0000000000        9.5784100000        0.0000000000
        0.0000000000        0.0000000000       15.7901416898
   Ni    S
   36   36
Direct
     0.780046307     0.145296954     0.099480032
     0.814614264     0.145296954     0.294826193
     0.262762328     0.645296954     0.001806952
     0.297330285     0.645296954     0.197153113
     0.435190321     0.145296954     0.034364645
     0.469758278     0.145296954     0.229710806
     0.952474300     0.645296954     0.132037726
     0.987042257     0.645296954     0.327383887
     0.124902293     0.145296954     0.164595419
     0.159470250     0.145296954     0.359941580
     0.607618314     0.645296954     0.066922339
     0.642186271     0.645296954     0.262268500
     0.907582776     0.013193954     0.073674219
     0.942150733     0.013193954     0.269020380
     0.424866755     0.513193954     0.171347299
     0.459434712     0.513193954     0.366693460
     0.562726790     0.013193954     0.008558832
     0.597294747     0.013193954     0.203904993
     0.080010769     0.513193954     0.106231912
     0.114578726     0.513193954     0.301578073
     0.252438762     0.013193954     0.138789606
     0.287006719     0.013193954     0.334135766
     0.735154783     0.513193954     0.041116525
     0.769722740     0.513193954     0.236462686
     0.907582776     0.277399954     0.073674219
     0.942150733     0.277399954     0.269020380
     0.424866755     0.777399954     0.171347299
     0.459434712     0.777399954     0.366693460
     0.562726790     0.277399954     0.008558832
     0.597294747     0.277399954     0.203904993
     0.080010769     0.777399954     0.106231912
     0.114578726     0.777399954     0.301578073
     0.252438762     0.277399954     0.138789606
     0.287006719     0.277399954     0.334135766
     0.735154783     0.777399954     0.041116525
     0.769722740     0.777399954     0.236462686
     0.026029163     0.145296954     0.358134628
     0.991461206     0.145296954     0.162788467
     0.474177227     0.645296954     0.065115387
     0.508745184     0.645296954     0.260461548
     0.646605220     0.145296954     0.097673080
     0.681173177     0.145296954     0.293019241
     0.129321241     0.645296954    -0.000000000
     0.163889198     0.645296954     0.195346161
     0.301749234     0.145296954     0.032557693
     0.336317191     0.145296954     0.227903854
     0.819033213     0.645296954     0.130230774
     0.853601170     0.645296954     0.325576935
     0.794493097     0.313511954     0.000302461
     0.829061055     0.313511954     0.195648622
     0.311777076     0.813511954     0.097975541
     0.346345033     0.813511954     0.293321702
     0.484205069     0.313511954     0.130533235
     0.518773026     0.313511954     0.325879396
     0.001489047     0.813511954     0.228206315
     0.966921090     0.813511954     0.032860154
     0.139349083     0.313511954     0.065417848
     0.173917040     0.313511954     0.260764009
     0.656633062     0.813511954     0.163090928
     0.691201019     0.813511954     0.358437089
     0.311777076     0.477081954     0.097975541
     0.346345033     0.477081954     0.293321702
     0.794493097     0.977081954     0.000302461
     0.829061055     0.977081954     0.195648622
     0.001489047     0.477081954     0.228206315
     0.966921090     0.477081954     0.032860154
     0.484205069     0.977081954     0.130533235
     0.518773026     0.977081954     0.325879396
     0.656633062     0.477081954     0.163090928
     0.691201019     0.477081954     0.358437089
     0.139349083     0.977081954     0.065417848
     0.173917040     0.977081954     0.260764009
