Structure 36 made from -211-9.xsd file  
   1.00000000000000     
     9.4251025535000004    3.5732980426999998    0.0000000000000000
     0.0000000000000000   10.0797329848999997    0.0000000000000000
     0.0000000000000000    0.0000000000000000   20.6835035552000015
   Ni   S 
    36    36
Direct
  0.2467903800000002  0.9452203009999991  0.0000000000000000
  0.3970588919999969  0.7949517890000024  0.1269370240000001
  0.5473274040000007  0.6446832769999986  0.2538740489999967
  0.6975959170000010  0.4944147639999983  0.3808110729999967
  0.8478644289999977  0.3441462520000016  0.5077480969999968
  0.1138150629999970  0.4115289510000011  0.1692493660000025
  0.2640835750000008  0.2612604389999973  0.2961863900000026
  0.4143520880000011  0.1109919270000006  0.4231234140000026
  0.9635465499999967  0.5617974640000014  0.0423123409999988
  0.6803027209999968  0.1783746260000001  0.0846246830000013
  0.8305712339999971  0.0281061140000034  0.2115617070000013
  0.9808397460000009  0.8778376019999996  0.3384987319999979
  0.5076255620000012  0.4201791189999966  0.2203365250000004
  0.6578940739999979  0.2699106069999999  0.3472735499999970
  0.8081625869999982  0.1196420939999996  0.4742105739999971
  0.0741132200000010  0.1870247940000027  0.1357118419999992
  0.2243817330000013  0.0367562819999989  0.2626488670000029
  0.3746502449999980  0.8864877689999986  0.3895858910000030
  0.5249187570000018  0.7362192570000019  0.5165229150000030
  0.9238447079999972  0.3372933059999994  0.0087748179999991
  0.0914064159999981  0.5030649320000009  0.4318982320000018
  0.6406008789999973  0.9538704690000017  0.0510871589999979
  0.7908693910000011  0.8036019569999979  0.1780241840000016
  0.9411379029999978  0.6533334439999976  0.3049612080000017
  0.0326667439999966  0.1593439370000027  0.4406730500000009
  0.5818612070000029  0.6101494739999964  0.0598619769999971
  0.7321297189999996  0.4598809619999997  0.1867990020000008
  0.8823982319999999  0.3096124489999994  0.3137360260000008
  0.2986173780000030  0.2267266369999987  0.1021743189999995
  0.4488858899999997  0.0764581239999984  0.2291113429999996
  0.5991544020000035  0.9261896120000017  0.3560483680000033
  0.7494229149999967  0.7759210990000014  0.4829853920000033
  0.0153735479999995  0.8433037989999974  0.1444866599999983
  0.1656420609999998  0.6930352870000007  0.2714236850000020
  0.3159105729999965  0.5427667740000004  0.3983607090000021
  0.8651050360000028  0.9935723119999977  0.0175496359999983
  0.0366048309999982  0.9551938500000006  0.4980576399999990
  0.5857992939999974  0.4059993870000014  0.1172465670000022
  0.7360678060000012  0.2557308749999976  0.2441835919999988
  0.8863363179999979  0.1054623630000009  0.3711206159999989
  0.1522869519999972  0.1728450620000004  0.0326218840000010
  0.3025554640000010  0.0225765499999966  0.1595589089999976
  0.4528239770000013  0.8723080370000034  0.2864959329999976
  0.6030924889999980  0.7220395249999996  0.4134329569999977
  0.0193116350000011  0.6391537120000024  0.2018712500000035
  0.1695801480000014  0.4888851999999986  0.3288082739999965
  0.3198486599999981  0.3386166880000019  0.4557452990000002
  0.8690431229999973  0.7894222250000027  0.0749342260000034
  0.4860856170000005  0.8421430639999983  0.0330149660000032
  0.6363541289999972  0.6918745520000016  0.1599519900000033
  0.7866226419999975  0.5416060390000013  0.2868890149999999
  0.9368911540000013  0.3913375269999975  0.4138260389999999
  0.2028417880000006  0.4587202270000006  0.0753273070000020
  0.3531102999999973  0.3084517140000003  0.2022643319999986
  0.5033788120000011  0.1581832019999965  0.3292013559999987
  0.6536473250000014  0.0079146890000032  0.4561383799999987
  0.0698664709999974  0.9250288770000026  0.2445766729999974
  0.2201349830000012  0.7747603640000023  0.3715136980000011
  0.3704034960000016  0.6244918519999985  0.4984507220000012
  0.9195979579999971  0.0752973889999993  0.1176396489999973
  0.2002104520000003  0.7915882280000019  0.0757203889999971
  0.3504789650000006  0.6413197159999982  0.2026574129999972
  0.5007474769999973  0.4910512040000015  0.3295944380000009
  0.6510159899999977  0.3407826910000011  0.4565314620000009
  0.0672351360000008  0.2578968790000005  0.2449697549999996
  0.2175036479999974  0.1076283660000001  0.3719067789999997
  0.3677721600000012  0.9573598540000035  0.4988438040000034
  0.9169666230000004  0.4081653909999972  0.1180327309999996
  0.4834542819999967  0.1750110660000033  0.0334080479999983
  0.6337227940000005  0.0247425539999995  0.1603450719999984
  0.7839913059999972  0.8744740409999991  0.2872820959999984
  0.9342598189999975  0.7242055290000025  0.4142191210000021
 
  0.00000000E+00  0.00000000E+00  0.00000000E+00
  0.00000000E+00  0.00000000E+00  0.00000000E+00
  0.00000000E+00  0.00000000E+00  0.00000000E+00
  0.00000000E+00  0.00000000E+00  0.00000000E+00
  0.00000000E+00  0.00000000E+00  0.00000000E+00
  0.00000000E+00  0.00000000E+00  0.00000000E+00
  0.00000000E+00  0.00000000E+00  0.00000000E+00
  0.00000000E+00  0.00000000E+00  0.00000000E+00
  0.00000000E+00  0.00000000E+00  0.00000000E+00
  0.00000000E+00  0.00000000E+00  0.00000000E+00
  0.00000000E+00  0.00000000E+00  0.00000000E+00
  0.00000000E+00  0.00000000E+00  0.00000000E+00
  0.00000000E+00  0.00000000E+00  0.00000000E+00
  0.00000000E+00  0.00000000E+00  0.00000000E+00
  0.00000000E+00  0.00000000E+00  0.00000000E+00
  0.00000000E+00  0.00000000E+00  0.00000000E+00
  0.00000000E+00  0.00000000E+00  0.00000000E+00
  0.00000000E+00  0.00000000E+00  0.00000000E+00
  0.00000000E+00  0.00000000E+00  0.00000000E+00
  0.00000000E+00  0.00000000E+00  0.00000000E+00
  0.00000000E+00  0.00000000E+00  0.00000000E+00
  0.00000000E+00  0.00000000E+00  0.00000000E+00
  0.00000000E+00  0.00000000E+00  0.00000000E+00
  0.00000000E+00  0.00000000E+00  0.00000000E+00
  0.00000000E+00  0.00000000E+00  0.00000000E+00
  0.00000000E+00  0.00000000E+00  0.00000000E+00
  0.00000000E+00  0.00000000E+00  0.00000000E+00
  0.00000000E+00  0.00000000E+00  0.00000000E+00
  0.00000000E+00  0.00000000E+00  0.00000000E+00
  0.00000000E+00  0.00000000E+00  0.00000000E+00
  0.00000000E+00  0.00000000E+00  0.00000000E+00
  0.00000000E+00  0.00000000E+00  0.00000000E+00
  0.00000000E+00  0.00000000E+00  0.00000000E+00
  0.00000000E+00  0.00000000E+00  0.00000000E+00
  0.00000000E+00  0.00000000E+00  0.00000000E+00
  0.00000000E+00  0.00000000E+00  0.00000000E+00
  0.00000000E+00  0.00000000E+00  0.00000000E+00
  0.00000000E+00  0.00000000E+00  0.00000000E+00
  0.00000000E+00  0.00000000E+00  0.00000000E+00
  0.00000000E+00  0.00000000E+00  0.00000000E+00
  0.00000000E+00  0.00000000E+00  0.00000000E+00
  0.00000000E+00  0.00000000E+00  0.00000000E+00
  0.00000000E+00  0.00000000E+00  0.00000000E+00
  0.00000000E+00  0.00000000E+00  0.00000000E+00
  0.00000000E+00  0.00000000E+00  0.00000000E+00
  0.00000000E+00  0.00000000E+00  0.00000000E+00
  0.00000000E+00  0.00000000E+00  0.00000000E+00
  0.00000000E+00  0.00000000E+00  0.00000000E+00
  0.00000000E+00  0.00000000E+00  0.00000000E+00
  0.00000000E+00  0.00000000E+00  0.00000000E+00
  0.00000000E+00  0.00000000E+00  0.00000000E+00
  0.00000000E+00  0.00000000E+00  0.00000000E+00
  0.00000000E+00  0.00000000E+00  0.00000000E+00
  0.00000000E+00  0.00000000E+00  0.00000000E+00
  0.00000000E+00  0.00000000E+00  0.00000000E+00
  0.00000000E+00  0.00000000E+00  0.00000000E+00
  0.00000000E+00  0.00000000E+00  0.00000000E+00
  0.00000000E+00  0.00000000E+00  0.00000000E+00
  0.00000000E+00  0.00000000E+00  0.00000000E+00
  0.00000000E+00  0.00000000E+00  0.00000000E+00
  0.00000000E+00  0.00000000E+00  0.00000000E+00
  0.00000000E+00  0.00000000E+00  0.00000000E+00
  0.00000000E+00  0.00000000E+00  0.00000000E+00
  0.00000000E+00  0.00000000E+00  0.00000000E+00
  0.00000000E+00  0.00000000E+00  0.00000000E+00
  0.00000000E+00  0.00000000E+00  0.00000000E+00
  0.00000000E+00  0.00000000E+00  0.00000000E+00
  0.00000000E+00  0.00000000E+00  0.00000000E+00
  0.00000000E+00  0.00000000E+00  0.00000000E+00
  0.00000000E+00  0.00000000E+00  0.00000000E+00
  0.00000000E+00  0.00000000E+00  0.00000000E+00
  0.00000000E+00  0.00000000E+00  0.00000000E+00
