Type_037 Type_137                       
   1.00000000000000     
    16.8846940542000006    0.0000000000000000    0.0000000000000000
     0.0000000000000000    9.5784099999999999    0.0000000000000000
     0.0000000000000000    0.0000000000000000   16.5480325497000003
   Ty   Ty
    37    37
Direct
  0.7800463049979740  0.1452969570001699  0.1178236280019505
  0.8024217110661738  0.1450856366870923  0.2807328108491163
  0.2154894471241491  0.6336901320365271  0.0932853923186130
  0.2973302840006866  0.6452969570001699  0.2110233349984156
  0.3879691955312907  0.1356194474448245  0.1194232690300012
  0.4697582760006824  0.1452969570001699  0.2420899039972326
  0.9524742979988829  0.6452969570001699  0.1488901970007674
  0.9754177919915108  0.6456500659817266  0.3134174895851274
  0.1249022909997848  0.1452969570001699  0.1799567659995915
  0.0683423023476664  0.1955294507647949  0.3070378315815034
  0.5704545343363279  0.6560974768672452  0.1554122438045766
  0.6421862690015914  0.6452969570001699  0.2731564730021034
  0.9102193402833407  0.0036322426060309  0.1147029982989949
  0.9447846465794782  0.0135110221529473  0.2658255411142392
  0.3570286390176278  0.6448932606246771  0.0567958066844056
  0.4248667529996197  0.5131939570033026  0.1863994130018725
  0.4682677175683452  0.4588770282750474  0.3214792047164821
  0.5917869308869399  0.9131568695430659  0.0868875564500939
  0.5972947460005287  0.0131939570033026  0.2174659820006966
  0.0800107669978161  0.5131939570033026  0.1242662760013289
  0.1122975328136491  0.5040744651356519  0.2902508746145216
  0.2524387599987179  0.0131939570033026  0.1553328439970088
  0.7747895208232052  0.4345115788633009  0.1154405852213927
  0.7697227380005245  0.5131939570033026  0.2485325509995207
  0.9095443313454581  0.2860274956803863  0.1131913181868853
  0.9398203848385833  0.2834075244221097  0.2636784184219607
  0.4444566056459465  0.8543919949240006  0.0522214767891356
  0.4248667529996197  0.7773999569970371  0.1863994130018725
  0.4597563893654950  0.8145942443787675  0.3292704092365852
  0.5301372165919389  0.1471054016898421  0.0862360476155715
  0.5972947460005287  0.2773999569970371  0.2174659820006966
  0.0800107669978161  0.7773999569970371  0.1242662760013289
  0.1129376532129527  0.7929632685278634  0.2869442968908160
  0.2524387599987179  0.2773999569970371  0.1553328439970088
  0.2956993543959427  0.3174123653717089  0.2922426105868183
  0.7684688905495705  0.8662505599467991  0.1151384775910742
  0.7697227380005245  0.7773999569970371  0.2485325509995207
  0.9610836498552615  0.1515180165810435  0.3590083602239318
  0.9914612039971118  0.1452969570001699  0.1782325720016473
  0.4741772250003251  0.6452969570001699  0.0850328649991425
  0.5087451819989184  0.6452969570001699  0.2714322780010150
  0.6466052180012269  0.1452969570001699  0.1160994339979595
  0.6793791414269990  0.1462146802339817  0.2770639452835226
  0.1118731535695261  0.6452245917537454  0.0318387130202709
  0.1638891969980136  0.6452969570001699  0.2092991410004714
  0.0812226767211612  0.6519480213104245  0.3745606689909735
  0.2810214775801470  0.1442081567608824  0.0615443963831481
  0.3295780580765566  0.1414402082600361  0.2296377162292274
  0.8190332110021288  0.6452969570001699  0.1471660030028232
  0.8511874873815088  0.6452986923821413  0.3082449980370896
  0.8151915726643679  0.2945199573833222  0.0343570489115521
  0.8290610530024907  0.3135119569949509  0.2095877490017912
  0.3117770739997852  0.8135119569949509  0.1163880419992864
  0.3482762579898377  0.7996447741535420  0.2852977498636591
  0.4842050670006870  0.3135119569949509  0.1474546109981034
  0.5290074193661880  0.2794924308418629  0.3207319563917750
  0.0014890459974737  0.8135119569949509  0.2406543180006153
  0.9677899799158780  0.8208761673910416  0.0773146809844292
  0.1405193092444463  0.3235285434325732  0.1071977216549627
  0.1739170379974695  0.3135119569949509  0.2717208869994323
  0.6566330600015888  0.8135119569949509  0.1785211800029671
  0.6965887639151092  0.7881888720361729  0.3446872527878497
  0.3117770739997852  0.4770819569949509  0.1163880419992864
  0.3527539326078823  0.5035847337814943  0.2926759364506921
  0.8173846934743239  0.9982611042751373  0.0339968057961215
  0.8290610530024907  0.9770819569949509  0.2095877490017912
  0.0014890459974737  0.4770819569949509  0.2406543180006153
  0.9673924215604544  0.4695671825908505  0.0772839505940652
  0.4842050670006870  0.9770819569949509  0.1474546109981034
  0.5213782428891705  0.9931739350581168  0.3166765903778099
  0.6566330600015888  0.4770819569949509  0.1785211800029671
  0.6950832359962504  0.4987147661041860  0.3432877336951421
  0.1416284092399778  0.9648270368255254  0.1112410408229110
  0.1284964626090073  0.0123751522329911  0.2820355789174869
 
  0.00000000E+00  0.00000000E+00  0.00000000E+00
  0.00000000E+00  0.00000000E+00  0.00000000E+00
  0.00000000E+00  0.00000000E+00  0.00000000E+00
  0.00000000E+00  0.00000000E+00  0.00000000E+00
  0.00000000E+00  0.00000000E+00  0.00000000E+00
  0.00000000E+00  0.00000000E+00  0.00000000E+00
  0.00000000E+00  0.00000000E+00  0.00000000E+00
  0.00000000E+00  0.00000000E+00  0.00000000E+00
  0.00000000E+00  0.00000000E+00  0.00000000E+00
  0.00000000E+00  0.00000000E+00  0.00000000E+00
  0.00000000E+00  0.00000000E+00  0.00000000E+00
  0.00000000E+00  0.00000000E+00  0.00000000E+00
  0.00000000E+00  0.00000000E+00  0.00000000E+00
  0.00000000E+00  0.00000000E+00  0.00000000E+00
  0.00000000E+00  0.00000000E+00  0.00000000E+00
  0.00000000E+00  0.00000000E+00  0.00000000E+00
  0.00000000E+00  0.00000000E+00  0.00000000E+00
  0.00000000E+00  0.00000000E+00  0.00000000E+00
  0.00000000E+00  0.00000000E+00  0.00000000E+00
  0.00000000E+00  0.00000000E+00  0.00000000E+00
  0.00000000E+00  0.00000000E+00  0.00000000E+00
  0.00000000E+00  0.00000000E+00  0.00000000E+00
  0.00000000E+00  0.00000000E+00  0.00000000E+00
  0.00000000E+00  0.00000000E+00  0.00000000E+00
  0.00000000E+00  0.00000000E+00  0.00000000E+00
  0.00000000E+00  0.00000000E+00  0.00000000E+00
  0.00000000E+00  0.00000000E+00  0.00000000E+00
  0.00000000E+00  0.00000000E+00  0.00000000E+00
  0.00000000E+00  0.00000000E+00  0.00000000E+00
  0.00000000E+00  0.00000000E+00  0.00000000E+00
  0.00000000E+00  0.00000000E+00  0.00000000E+00
  0.00000000E+00  0.00000000E+00  0.00000000E+00
  0.00000000E+00  0.00000000E+00  0.00000000E+00
  0.00000000E+00  0.00000000E+00  0.00000000E+00
  0.00000000E+00  0.00000000E+00  0.00000000E+00
  0.00000000E+00  0.00000000E+00  0.00000000E+00
  0.00000000E+00  0.00000000E+00  0.00000000E+00
  0.00000000E+00  0.00000000E+00  0.00000000E+00
  0.00000000E+00  0.00000000E+00  0.00000000E+00
  0.00000000E+00  0.00000000E+00  0.00000000E+00
  0.00000000E+00  0.00000000E+00  0.00000000E+00
  0.00000000E+00  0.00000000E+00  0.00000000E+00
  0.00000000E+00  0.00000000E+00  0.00000000E+00
  0.00000000E+00  0.00000000E+00  0.00000000E+00
  0.00000000E+00  0.00000000E+00  0.00000000E+00
  0.00000000E+00  0.00000000E+00  0.00000000E+00
  0.00000000E+00  0.00000000E+00  0.00000000E+00
  0.00000000E+00  0.00000000E+00  0.00000000E+00
  0.00000000E+00  0.00000000E+00  0.00000000E+00
  0.00000000E+00  0.00000000E+00  0.00000000E+00
  0.00000000E+00  0.00000000E+00  0.00000000E+00
  0.00000000E+00  0.00000000E+00  0.00000000E+00
  0.00000000E+00  0.00000000E+00  0.00000000E+00
  0.00000000E+00  0.00000000E+00  0.00000000E+00
  0.00000000E+00  0.00000000E+00  0.00000000E+00
  0.00000000E+00  0.00000000E+00  0.00000000E+00
  0.00000000E+00  0.00000000E+00  0.00000000E+00
  0.00000000E+00  0.00000000E+00  0.00000000E+00
  0.00000000E+00  0.00000000E+00  0.00000000E+00
  0.00000000E+00  0.00000000E+00  0.00000000E+00
  0.00000000E+00  0.00000000E+00  0.00000000E+00
  0.00000000E+00  0.00000000E+00  0.00000000E+00
  0.00000000E+00  0.00000000E+00  0.00000000E+00
  0.00000000E+00  0.00000000E+00  0.00000000E+00
  0.00000000E+00  0.00000000E+00  0.00000000E+00
  0.00000000E+00  0.00000000E+00  0.00000000E+00
  0.00000000E+00  0.00000000E+00  0.00000000E+00
  0.00000000E+00  0.00000000E+00  0.00000000E+00
  0.00000000E+00  0.00000000E+00  0.00000000E+00
  0.00000000E+00  0.00000000E+00  0.00000000E+00
  0.00000000E+00  0.00000000E+00  0.00000000E+00
  0.00000000E+00  0.00000000E+00  0.00000000E+00
  0.00000000E+00  0.00000000E+00  0.00000000E+00
  0.00000000E+00  0.00000000E+00  0.00000000E+00
