Type_037 Type_137 
1.0
1.6884694054200001e+01 0.0000000000000000e+00 0.0000000000000000e+00 
0.0000000000000000e+00 9.5784099999999999e+00 0.0000000000000000e+00 
0.0000000000000000e+00 0.0000000000000000e+00 1.6548032549700000e+01 
Type_0 Type_1 
37 37 
Cartesian
  13.1708432080    1.3917138259    1.9497492313
  13.5486450938    1.3896897133    4.6455756917
   3.6384733866    6.0697438976    1.5436897085
   5.0203308784    6.1809188259    3.4920210163
   6.5507411690    1.2990186716    1.9762201431
   7.9317247697    1.3917138259    4.0061116113
  16.0822371162    6.1809188259    2.4638398263
  16.4696309928    6.1843010485    5.1864428193
   2.1089369702    1.3917138259    2.9779304213
   1.1539388661    1.8728612465    5.0808720310
   9.6319502841    6.2843706334    2.5717668691
  10.8431186779    6.1809188259    4.5202022064
  15.3687750829    0.0347911089    1.8981089494
  15.9523997046    0.1294141097    4.3988897069
   6.0283193384    6.1770520565    0.9398588577
   7.1737451382    4.9155821297    3.0845435536
   7.9065571466    4.3953123164    5.3198483437
   9.9921412733    8.7465908908    1.4378181123
  10.0851390464    0.1263771297    3.5986341486
   1.3509573218    4.9155821297    2.0563623801
   1.8961094846    4.8282318976    4.8030809207
   4.2623512300    0.1263771297    2.5704529585
  13.0820840155    4.1619300521    1.9103145618
  12.9965329377    4.9155821297    4.1127247436
  15.3573777635    2.7396886249    1.8730936177
  15.8685796639    2.7145934660    4.3633590507
   7.5045138067    8.1837168281    0.8641626977
   7.1737451382    7.4462555221    3.0845435536
   7.7628459739    7.8025176563    5.4487774497
   8.9512047089    1.4090358506    1.4270369229
  10.0851390464    2.6570505221    3.5986341486
   1.3509573218    7.4462555221    2.0563623801
   1.9069177217    7.5953273009    4.7483635649
   4.2623512300    2.6570505221    2.5704529585
   4.9927931310    3.0403057746    4.8360402324
  12.9753621071    8.2973030259    1.9053152749
  12.9965329377    7.4462555221    4.1127247436
  16.2276033883    1.4513016852    5.9408820306
  16.7405190961    1.3917138259    2.9493984029
   8.0063373716    6.1809188259    1.4071266178
   8.5900067496    6.1809188259    4.4916701714
  10.9177312798    1.3917138259    1.9212172128
  11.4711089498    1.4005041553    4.5848631849
   1.8889439709    6.1802256819    0.5268680594
   2.7672189501    6.1809188259    3.4634889979
   1.3714200467    6.2446254468    6.1982421423
   4.7449616716    1.3812848508    1.0184386746
   5.5648246776    1.3547723052    3.8000524028
  13.8291251880    6.1809188259    2.4353078079
  14.3720403072    6.1809354481    5.1008482608
  13.7642603000    2.8210329050    0.5685415637
  13.9984422322    3.0029460640    3.4682648925
   5.2642605076    7.7921510640    1.9259931074
   5.8805380625    7.6593255012    4.7211164511
   8.1756544158    3.0029460640    2.4400837024
   8.9321284284    2.6770930945    5.3074828541
   0.0251420861    7.7921510640    3.9823554875
  16.3408377196    7.8626884905    1.2794058575
   2.3726255453    3.0988890357    1.7739113872
   2.9365359774    3.0029460640    4.4964460825
  11.0870483240    7.7921510640    2.9541742975
  11.7616881603    7.5495961738    5.7038958786
   5.2642605076    4.5696865877    1.9259931074
   5.9561422285    4.8235410499    4.8432109229
  13.8012904739    9.5617541438    0.5625802489
  13.9984422322    9.3588915877    3.4682648925
   0.0251420861    4.5696865877    3.9823554875
  16.3341250684    4.4977069974    1.2788973300
   8.1756544158    9.3588915877    2.4400837024
   8.8033121177    9.5130271513    5.2403745253
  11.0870483240    4.5696865877    2.9541742975
  11.7362677820    4.7768945028    5.6807365911
   2.3913523594    9.2415089378    1.8408203644
   2.1696234582    0.1185342819    4.6671339401
