Type_026 Type_126 
1.0
1.1256463038200000e+01 0.0000000000000000e+00 0.0000000000000000e+00 
0.0000000000000000e+00 9.5784099999999999e+00 0.0000000000000000e+00 
0.0000000000000000e+00 0.0000000000000000e+00 1.7192492404700001e+01 
Type_0 Type_1 
26 26 
Cartesian
   4.9453580763    4.4433094293    2.7995183711
   5.5936459811    4.2231453462    5.6920193123
   1.7573937233    9.4194955915    1.7852826517
   2.4230770848    9.2325144293    4.3417901407
   4.9453580763    1.9126360369    2.7995183711
   5.2595021974    1.6195420174    5.3642589662
   1.7745290870    6.5937309066    1.6908465325
   2.3529722844    6.6765565325    4.1581553541
   1.4705409881    3.1779727331    2.3920409139
   2.0267417944    3.1739769786    5.1454981117
   5.1529550775    7.8775721050    1.5965287417
   4.4996205295    8.0162670697    3.8404269726
   3.6392572959    7.5623186878    6.0813390055
  10.6596847158    4.6339580833    3.1268079156
  11.0353341429    4.5219883538    5.5828115491
   7.3918390041    9.3608985652    1.7255505894
   8.1029980299    9.3112895444    4.1466541709
  10.6615466221    1.7378006962    3.1145858203
  11.0107063561    1.7901969847    5.5663160191
   7.4012017018    6.5555360537    1.7428095493
   8.1158093888    6.5820306556    4.1692373852
   7.0409450141    3.1796389761    2.7406542427
   7.6824418858    3.1779727331    5.4765844702
  10.7324039777    7.9906340588    1.6298566765
  10.2047228660    7.9671777331    3.9343126834
  10.9168241402    7.9538053417    6.2014368521
   0.6250902844    1.5499307378    1.4466616804
   1.2549722354    1.5667404950    4.1079488450
   0.7415143665    3.1403664821    6.7396474811
   3.7772532156    6.3559454950    2.5656770583
   0.6547079262    4.8472475212    1.4728116750
   1.2549722354    4.7892049713    4.1079488450
   3.7772532156    9.5784099713    2.5656770583
   4.2346192480    9.3741098293    5.4500193876
   3.5303287980    3.1823002614    1.9424703769
   4.1411267131    3.1779727331    4.6268153431
   1.0890848531    8.0396913624    0.3915965724
   1.0351763544    7.9671777331    3.0845435563
   1.6720256161    7.8524964486    5.8335279728
   6.4827856831    1.6339644340    1.4404386228
   6.8832037545    1.5667404950    4.1079488450
   6.2259217185    2.6093586497    6.8437132445
   9.4054847347    6.3559454950    2.5656770583
   9.9141889575    6.3668867915    5.3438195719
   6.4696804369    4.7200271636    1.4376010374
   6.8832037545    4.7892049713    4.1079488450
   7.3047757105    4.7859176428    6.6744290029
   9.4054847347    9.5784099713    2.5656770583
   9.8752822977    9.5267265328    5.3709344189
   9.7693582322    3.1779727331    4.6268153431
   6.7621504397    7.9494405003    0.3629689414
   6.6634078735    7.9671777331    3.0845435563
