Type_026 Type_126 
1.0
1.1256463038200000e+01 0.0000000000000000e+00 0.0000000000000000e+00 
0.0000000000000000e+00 9.5784099999999999e+00 0.0000000000000000e+00 
0.0000000000000000e+00 0.0000000000000000e+00 1.7192492404700001e+01 
Type_0 Type_1 
26 26 
Cartesian
   4.9453580763    4.4433094293    2.7995183711
   5.3747288181    4.6285187999    5.4991374990
   1.6915643225    0.3321594745    2.1459521471
   2.4230770848    9.2325144293    4.3417901407
   4.7322535671    1.6454834885    3.3805392388
   5.5719071516    1.9114592065    5.7290796849
   1.8874125276    6.7335890840    1.6745330414
   2.4230770848    6.7018410369    4.3417901407
   1.4705409881    3.1779727331    2.3920409139
   2.0706192776    3.1881792011    5.1269527285
   6.0622593057    6.3396538517    1.9232301623
   4.5764913469    7.9671777331    3.9343126834
   6.3312563015    8.5414032279    5.5469362041
  10.5735895954    4.4433094293    2.7995183711
  11.1199520008    4.4256308371    5.5524295902
   8.3123751511    7.9209753561    1.7784924962
   7.9561837163    9.3730566181    4.0324499789
  10.5735895954    1.9126360369    2.7995183711
  11.1284837402    1.9635583201    5.5713468731
   8.1406311130    5.0933353439    1.5313061085
   7.8698099101    6.6219308094    4.0447641197
   7.1778558316    3.1942782642    2.7875122317
   7.6824418858    3.1779727331    5.4765844702
  10.9563238180    8.5565161091    1.5747477674
   9.9309281408    7.9703874821    3.8173788194
   0.5717219153    7.9604298355    5.2342681476
   0.5681242895    1.7623679685    1.1840014448
   1.2549722354    1.5667404950    4.1079488450
   0.8918607388    3.2072247669    6.8074593769
   3.7772532156    6.3559454950    2.5656770583
   5.2609782603    6.7476051028    5.5036195302
   0.8473221170    4.9323698140    1.4496352780
   1.2549722354    4.7892049713    4.1079488450
   3.7772532156    9.5784099713    2.5656770583
   4.5084731931    0.1537923512    5.1152456806
   3.5719637412    2.9679117445    2.1107883806
   4.1411267131    3.1779727331    4.6268153431
   1.5008730715    8.4759601220    0.5976109199
   1.0351763544    7.9671777331    3.0845435563
   2.4287408566    7.9329534829    5.9671745026
   6.8832037545    1.5667404950    4.1079488450
   6.8451534949    0.5873242548    6.6555994063
   9.4054847347    6.3559454950    2.5656770583
   6.2424896489    4.2957192346    1.2230139826
   6.8832037545    4.7892049713    4.1079488450
   6.2917786584    3.4588435915    6.8989678132
   9.4054847347    9.5784099713    2.5656770583
   9.1234443471    3.2395839090    1.8811447569
   9.7693582322    3.1779727331    4.6268153431
   7.4149447303    6.6881217061    0.4028804901
   6.6634078735    7.9671777331    3.0845435563
   8.4766267228    7.9953862101    5.4782890859
