Type_036 Type_136 
1.0
1.1452783670500001e+01 0.0000000000000000e+00 0.0000000000000000e+00 
-4.0053990701000002e+00 8.7007307979000004e+00 0.0000000000000000e+00 
0.0000000000000000e+00 0.0000000000000000e+00 2.0500762856000001e+01 
Type_0 Type_1 
36 36 
Cartesian
   6.3498294782    0.6471180538    7.1632766569
   8.0708222517    1.4393805677    4.6601620083
   9.7887629507    2.2062306858    2.4525807255
   1.1946395603    8.5481884185    9.1901312694
  -2.8082971717    6.9757802645    5.4945335647
  -1.0873044057    7.7680427697    2.9914189160
   0.3547237882    8.2397699480    0.9949390301
   6.9234937368    6.1835177507    7.9976482133
   0.2237247027    2.9195098609    8.4832717701
   1.7707661570    3.8114491635    6.3289051210
   3.4917589230    4.6037116687    3.8257904724
   5.1762447516    5.3621532682    1.6106884009
   2.5123357812    0.2734965619    8.3437154819
   4.2333285432    1.0657590758    5.8406008332
   5.9543213206    1.8580215810    3.3374862050
   7.6593416821    2.6428897645    1.2644637922
  -3.2038053408    8.1866837917    1.6687430923
   2.9020655835    5.7560884998    7.7880166878
   4.8069928017    6.6021587726    6.6749723896
   6.5279855677    7.3944212778    4.1718577409
  -0.3457347741    4.2300901768    5.0062292973
   1.3752579879    5.0223526907    2.5031146487
   3.0430606735    5.7901296040    0.4147829458
   7.7451623996    2.5147016789    8.5713484038
   9.5362983291    3.5581600201    7.1688859513
   3.7602727788    1.9908204840    9.3111221306
   5.2915790115    2.9459033350    7.1632766569
   7.0125717849    3.7381658488    4.6601620083
   8.7121799891    4.5442967687    2.4524673934
   0.1388514317    0.5738347478    5.4945335647
   1.8598441977    1.3660972530    2.9914189160
   3.1557378045    2.1548837509    0.9950795198
   5.8652432701    8.4823030318    7.9976482133
   0.7125156903    6.1102344447    6.3289051210
   2.4335084562    6.9024969499    3.8257904724
   4.1051226290    7.6890071065    1.6106485108
   1.6438546114    1.8081154251    9.4557037316
   3.1253583171    2.3294667204    7.3517128013
   4.8463510791    3.1217292343    4.8485981527
   6.5673438451    3.9139917394    2.3454835040
  -0.3063764967    0.7496606384    3.1798550604
   1.3138774533    1.3482361326    0.9896117690
   3.6554972351    7.8104088659    7.9418244039
   5.4200153376    8.6581289311    5.6829697091
  -1.3877552074    5.5155633596    6.2609594634
   0.2672877504    6.2860603353    4.0142265963
   1.9882805278    7.0783228405    1.5111119476
   8.1569064336    4.5468505653    8.4120018066
  -0.6422015781    4.0934791318    2.1142031724
   5.8204311374    1.7963849688    9.0359585295
   7.5414238994    2.5886474827    6.5328438808
   9.2624166654    3.3809099879    4.0297292322
   2.3886963236    0.2165788868    4.8641007681
   4.1096890856    1.0088414007    2.3609861194
  -3.3376955085    8.1250471709    7.3672154167
   6.2066172761    7.2507794701    9.5054778453
   1.0490353202    4.8288575158    7.9902206973
   2.9623605707    5.7529785837    5.6984723244
   4.6833533367    6.5452410889    3.1953576758
   6.1451064459    7.2181303495    1.2057292396
   6.1938874882    0.1945423719    4.8485981527
   7.9148802542    0.9868048771    2.3454835040
   3.4620682510    0.1164362428   10.1537384421
   0.4674956561    8.1030106559    7.3517128013
  -2.9642391577    6.5232045740    3.1798550604
  -1.4558158245    7.3650898774    0.9895764889
   4.9818654893    4.9538573972    7.9004236539
   6.7675517468    5.7309420688    5.6829697091
  -0.1061686024    2.5666109591    6.5173412450
   1.6148241596    3.3588734730    4.0142265963
   3.3358169370    4.1511359781    1.5111119476
   9.7630889098    1.9102593406    8.5625767919
