Type_036 Type_136 
1.0
1.0079732984900000e+01 0.0000000000000000e+00 0.0000000000000000e+00 
3.5732980426999998e+00 9.4251025535000004e+00 0.0000000000000000e+00 
0.0000000000000000e+00 0.0000000000000000e+00 2.0502009575999999e+01 
Type_0 Type_1 
36 36 
Cartesian
   6.6461285638    9.2576970513    1.1679642943
   6.8428472953    7.4925021176    2.6255023948
   7.8205595925    6.0762059814    5.2510047896
   8.7982718962    4.6599098358    7.8765071843
   2.6177410564    3.8787025575    3.5006698529
   3.5954533500    2.4624064119    6.1261722476
   4.5731656472    1.0461102757    8.7516746424
  11.9528297019    5.6103034609    2.2110615675
   3.7144923599    7.6024604058    9.2792872054
   7.9431443188    2.0227368150    3.0265588610
   8.4723677887    0.2649029880    4.3758373315
  13.0233781387    8.2737094054    7.0013397262
   5.6305284794    4.9890831776    2.4619330137
   6.6181553578    3.9602312686    4.5573313097
   7.5958676550    2.5439351324    7.1828337045
   8.4075895879    1.1035980280    9.4778940970
   1.4153368116    1.7627278447    2.8069963730
   2.3930491088    0.3464317085    5.4324987678
   6.9440594552    8.3552381164    8.0580011626
   2.0415235313    3.5597730523    0.9706860821
   2.7027066604    4.7993689344    8.6882331972
   9.0471930443    8.3123323839    1.9631710505
  10.8432616003    7.5740308381    3.6821638311
  11.8209738939    6.1577346925    6.3076662259
   0.8313929321    1.7046853701    8.7081388688
   8.0413004031    5.6242907096    1.6673034542
   9.0229638322    4.3344252104    3.8636578094
  10.0006761294    2.9181290743    6.4891602042
   3.8201452860    2.1369217865    2.1133228932
   4.7978575897    0.7206256409    4.7388252880
   9.3488679296    8.7294320583    7.3643276828
  10.2189803225    7.5870631194    9.2593904743
   3.1683370863    7.9482247705    2.9884903513
   4.1460493935    6.5319286343    5.6139927461
   5.1237616907    5.1156324982    8.2394951409
  11.3273485199    9.4126538216    1.7280980497
   0.1221734475    0.1637262859    9.9539683679
   7.3554572877    3.8265858497    2.4250697877
   8.3331695913    2.4102897041    5.0505721825
   9.3108818885    0.9939935680    7.6760745772
   2.0877352759    1.5663554876    0.8320126001
   3.1303510452    0.2127862802    3.3002372458
   7.6813613951    8.2215926976    5.9257396405
   8.5968449288    6.8878678741    8.2167548006
   2.4785428490    6.0240892737    4.1754047244
   3.4562551426    4.6077931281    6.8009071191
   4.2623183410    3.2277747773    8.8078322284
  11.5805635366    7.4403854098    1.5499023296
   7.6246341292    7.4157709262    0.6894865804
   8.8865536996    6.5209885879    3.3083675637
   9.8642659968    5.1046924518    5.9338699585
  10.8048392089    3.7652978474    8.2468033437
   3.7505598107    4.3533814370    1.7819244683
   4.6614474571    2.9071890184    4.1835350218
   5.6391597543    1.4908928822    6.8090374166
   6.5102964448    0.2080624790    9.1604448179
   4.0096392609    8.7184920119    5.0587025004
   4.9873515581    7.3021958757    7.6842048747
   4.1188473964    5.6926926738    9.9146807458
   9.5383618958    0.7096855945    2.4332001056
   4.9671950991    7.9694780642    1.8479171881
   5.8243608830    6.0445040741    4.1916653397
   6.8020731801    4.6282079379    6.8171677345
   8.1143831036    3.1261263804    9.0771322018
   1.5992546340    2.4307045140    5.0668327978
   2.5769669377    1.0144083684    7.6923351926
   7.4415051694    8.9801214998    9.8893546513
  10.7012753216    3.8470006501    2.4413304030
   4.9408129511    0.7260666266    1.0367031964
   6.4761690827    0.2332010900    3.3164978611
  11.0271794191    8.2420074980    5.9420002559
  12.0048917263    6.8257113618    8.5675026507
