Type_036 Type_136 
1.0
1.6884694054200001e+01 0.0000000000000000e+00 0.0000000000000000e+00 
0.0000000000000000e+00 9.5784099999999999e+00 0.0000000000000000e+00 
0.0000000000000000e+00 0.0000000000000000e+00 1.6169087119699999e+01 
Type_0 Type_1 
36 36 
Cartesian
  13.1708432418    1.3917137972    1.9497492410
  13.6527589880    1.3917137971    4.7319330353
   3.7794013634    6.1809187973    1.5126763670
   5.0203308953    6.1809187972    3.4920210102
   7.9317248035    1.3917137972    4.0061116054
  16.0822371500    6.1809187972    2.4638398361
  15.9693568019    6.1809187972    4.8723800970
   2.1089370040    1.3917137972    2.9779304313
   9.6318144552    6.1809187966    2.5976110014
  10.8431187116    6.1809187972    4.5202022005
  15.3757645258    0.0544115066    1.8851785064
  15.9072989758    0.0736873545    4.3436467763
   6.6362715747    4.9737522274    0.5421255524
   7.1737451720    4.9155821009    3.0845435547
   8.0361106491    4.2099688876    5.1021285846
   9.4028351180    0.1809711659    1.2805007936
  10.0851390633    0.1263771009    3.5986341498
   1.3509573556    4.9155821009    2.0563623806
   2.1040433874    4.3151797011    4.1558925876
   4.2623512638    0.1263771009    2.5704529595
   5.1116768319    9.2665689709    4.9092945531
  13.1055233271    4.1530867412    1.8990868548
  12.9965329715    4.9155821009    4.1127247450
  15.3757645258    2.7290160878    1.8851785064
  15.9072989758    2.7097402398    4.3436467764
   6.6362715728    7.3880853641    0.5421255515
   7.1737451720    7.4462554934    3.0845435547
   8.0361106509    8.1518687091    5.1021285821
   9.4028351239    2.6024564366    1.2805007927
  10.0851390633    2.6570504934    3.5986341498
   1.3509573556    7.4462554934    2.0563623806
   2.1040433879    8.0466578945    4.1558925864
   4.2623512638    2.6570504934    2.5704529595
   5.1116768315    3.0952686230    4.9092945536
  13.1055233272    8.2087508530    1.8990868548
  12.9965329715    7.4462554934    4.1127247450
  15.3847515975    1.3917137971    5.8169599886
  16.7405191299    1.3917137972    2.9493983955
   8.0063374054    6.1809187972    1.4071266100
   8.5900067834    6.1809187972    4.4916701809
  10.9177313135    1.3917137972    1.9212172052
  11.5637837871    1.3917137973    4.5089082474
   1.9963266390    6.1809187971    0.5550672469
   2.7672189670    6.1809187972    3.4634889906
   4.5990354190    1.3917137972    1.0483314495
   5.6786128752    1.3917137972    3.9775795857
  13.8291252217    6.1809187972    2.4353078003
  14.0360294202    6.1809187972    5.3971781877
  13.7934214840    2.8062303300    0.5662421208
  13.9984422659    3.0029460353    3.4682648862
   5.2642605414    7.7921510353    1.9259931169
   6.0595135980    7.5021301358    4.8825941017
   8.1644277181    3.1083960908    2.8084629550
   9.1008380915    2.5774384723    5.4228218367
   0.0251421030    7.7921510353    3.9823554813
  16.3327599601    7.8692784534    1.2741658703
   2.3514824884    3.1386712125    1.8905803853
   3.1702561228    2.6555144562    4.4479688927
  11.0870483577    7.7921510353    2.9541742911
  11.6629418651    7.6624064520    5.6364405951
   5.2642605414    4.5696865590    1.9259931169
   6.0595135966    4.8597074587    4.8825941012
  13.7934214839    9.5556072644    0.5662421209
  13.9984422659    9.3588915590    3.4682648862
   0.0251421030    4.5696865590    3.9823554813
  16.3327599601    4.4925591410    1.2741658703
   8.1644277179    9.2534415027    2.8084629573
   9.1008380928    0.2059891239    5.4228218376
  11.0870483577    4.5696865590    2.9541742911
  11.6629418652    4.6994311424    5.6364405952
   2.3514824884    9.2231663816    1.8905803860
   3.1702561232    0.1279131391    4.4479688932
