Type_037 Type_137                       
   1.00000000000000     
    16.8846940542000006    0.0000000000000000    0.0000000000000000
     0.0000000000000000    9.5784099999999999    0.0000000000000000
     0.0000000000000000    0.0000000000000000   16.6546456851000002
   Ty   Ty
    37    37
Direct
  0.7800463049979740  0.1452969570001699  0.1234707970004862
  0.8028639636753141  0.1450317422515823  0.2855552163295059
  0.2174953959670063  0.6731080469409818  0.0938897663670488
  0.2973302840006866  0.6452969570001699  0.2160738940018092
  0.3900495786218769  0.1578038035122731  0.1304983276374614
  0.4697582760006824  0.1452969570001699  0.2469415940009725
  0.9524742979988829  0.6452969570001699  0.1543384960029286
  0.9544965118033133  0.6357798607702136  0.2979945151544214
  0.1717693703771062  0.1470296698303812  0.0466154853233860
  0.1249022909997848  0.1452969570001699  0.1852061949993669
  0.0778695722693854  0.1151259244175193  0.3142982965457506
  0.5771053149035978  0.6420433380279178  0.1535227993824861
  0.6421862690015914  0.6452969570001699  0.2778092929974108
  0.9105835971055427  0.0056313836534443  0.1206163628084340
  0.9437560104760223  0.0079279421427998  0.2692875527524663
  0.4514308203591071  0.4382220137162633  0.0569803319532056
  0.4248667529996268  0.5131939570033026  0.1916076000016602
  0.5303276509515769  0.1432100154827367  0.0912818213154836
  0.5972947460005287  0.0131939570033026  0.2224753000008235
  0.0800107669978161  0.5131939570033026  0.1298722020027796
  0.2524387599987179  0.0131939570033026  0.1607399009992179
  0.2969335887997886  0.8847073979084215  0.2726033606624156
  0.7659292246804483  0.4205613704257800  0.1205921878840570
  0.7697227380005245  0.5131939570033026  0.2533429989972618
  0.9199539124747247  0.3657107638219728  0.1341020598353566
  0.9426944831043969  0.2725589685866439  0.2723699079445652
  0.3578221504521224  0.6435255392283281  0.0620199186239105
  0.4248667529996268  0.7773999569970371  0.1916076000016602
  0.5366054030659981  0.8232330207101199  0.2911924782067743
  0.5944808787461113  0.3733378326361034  0.0922301339784255
  0.5972947460005287  0.2773999569970371  0.2224753000008235
  0.0800107669978161  0.7773999569970371  0.1298722020027796
  0.1277464513349287  0.7808360303536830  0.2745295440593196
  0.2524387599987179  0.2773999569970371  0.1607399009992179
  0.2881316894391617  0.3201642637556787  0.2980608272946412
  0.7840016458046009  0.8537071489318180  0.1192948203681965
  0.7697227380005245  0.7773999569970371  0.2533429989972618
  0.9697535676713684  0.1376259507997659  0.3639157985523696
  0.9914612039971118  0.1452969570001699  0.1834930380016431
  0.4741772250003251  0.6452969570001699  0.0908899399975951
  0.5144413692197958  0.6166319951536821  0.2620070650979898
  0.6466052180012269  0.1452969570001699  0.1217576390000445
  0.6803581495421014  0.1483131545110297  0.2815758634898771
  0.1125562935105293  0.6484218138605442  0.0358191981732574
  0.1615391736767364  0.6207570228252948  0.1994150909659567
  0.2386087367510115  0.7220595541222394  0.3224036039207832
  0.2894872147881244  0.1441478357994725  0.0632862187241230
  0.3363171889980094  0.1452969570001699  0.2452284360005237
  0.8190332110021288  0.6452969570001699  0.1526253389992007
  0.8380797554800878  0.6491163033530611  0.3240485230513386
  0.8352142230846127  0.2950013254496326  0.0516827797705730
  0.8290610530024907  0.3135119569949509  0.2146474980010069
  0.3117770739997852  0.8135119569949509  0.1220444000029630
  0.4100014829038585  0.8331657212418335  0.3095614510257931
  0.4842050670006870  0.3135119569949509  0.1529121000021263
  0.5196968743012107  0.3005482041382663  0.3151218289678397
  0.0014890459974737  0.8135119569949509  0.2455151969974452
  0.9673097661688033  0.8239614872196981  0.0830288302462705
  0.1403978762179747  0.3222783989096314  0.1089120978972744
  0.1723033291252491  0.2617224501874560  0.2789847115545001
  0.6566330600015888  0.8135119569949509  0.1837797989985646
  0.6613840338150609  0.8340869753435101  0.3311461810703094
  0.3117770739997852  0.4770819569949509  0.1220444000029630
  0.3509819523396018  0.4987745771375387  0.2918960034946423
  0.8178467238418818  0.0009714138881094  0.0401166355341758
  0.8290610530024907  0.9770819569949509  0.2146474980010069
  0.9899625960141165  0.4687233620820166  0.2259629189450010
  0.9758625908061020  0.5065836003992317  0.0611573166405606
  0.4842050670006870  0.9770819569949509  0.1529121000021263
  0.5328096737330128  0.0264841486948271  0.3290922550398960
  0.6566330600015888  0.4770819569949509  0.1837797989985646
  0.6971820073501291  0.5067063037915460  0.3502258043783186
  0.1407253008892368  0.9674489010284617  0.1059980113524333
  0.1739170379974695  0.9770819569949509  0.2763828959998875
 
  0.00000000E+00  0.00000000E+00  0.00000000E+00
  0.00000000E+00  0.00000000E+00  0.00000000E+00
  0.00000000E+00  0.00000000E+00  0.00000000E+00
  0.00000000E+00  0.00000000E+00  0.00000000E+00
  0.00000000E+00  0.00000000E+00  0.00000000E+00
  0.00000000E+00  0.00000000E+00  0.00000000E+00
  0.00000000E+00  0.00000000E+00  0.00000000E+00
  0.00000000E+00  0.00000000E+00  0.00000000E+00
  0.00000000E+00  0.00000000E+00  0.00000000E+00
  0.00000000E+00  0.00000000E+00  0.00000000E+00
  0.00000000E+00  0.00000000E+00  0.00000000E+00
  0.00000000E+00  0.00000000E+00  0.00000000E+00
  0.00000000E+00  0.00000000E+00  0.00000000E+00
  0.00000000E+00  0.00000000E+00  0.00000000E+00
  0.00000000E+00  0.00000000E+00  0.00000000E+00
  0.00000000E+00  0.00000000E+00  0.00000000E+00
  0.00000000E+00  0.00000000E+00  0.00000000E+00
  0.00000000E+00  0.00000000E+00  0.00000000E+00
  0.00000000E+00  0.00000000E+00  0.00000000E+00
  0.00000000E+00  0.00000000E+00  0.00000000E+00
  0.00000000E+00  0.00000000E+00  0.00000000E+00
  0.00000000E+00  0.00000000E+00  0.00000000E+00
  0.00000000E+00  0.00000000E+00  0.00000000E+00
  0.00000000E+00  0.00000000E+00  0.00000000E+00
  0.00000000E+00  0.00000000E+00  0.00000000E+00
  0.00000000E+00  0.00000000E+00  0.00000000E+00
  0.00000000E+00  0.00000000E+00  0.00000000E+00
  0.00000000E+00  0.00000000E+00  0.00000000E+00
  0.00000000E+00  0.00000000E+00  0.00000000E+00
  0.00000000E+00  0.00000000E+00  0.00000000E+00
  0.00000000E+00  0.00000000E+00  0.00000000E+00
  0.00000000E+00  0.00000000E+00  0.00000000E+00
  0.00000000E+00  0.00000000E+00  0.00000000E+00
  0.00000000E+00  0.00000000E+00  0.00000000E+00
  0.00000000E+00  0.00000000E+00  0.00000000E+00
  0.00000000E+00  0.00000000E+00  0.00000000E+00
  0.00000000E+00  0.00000000E+00  0.00000000E+00
  0.00000000E+00  0.00000000E+00  0.00000000E+00
  0.00000000E+00  0.00000000E+00  0.00000000E+00
  0.00000000E+00  0.00000000E+00  0.00000000E+00
  0.00000000E+00  0.00000000E+00  0.00000000E+00
  0.00000000E+00  0.00000000E+00  0.00000000E+00
  0.00000000E+00  0.00000000E+00  0.00000000E+00
  0.00000000E+00  0.00000000E+00  0.00000000E+00
  0.00000000E+00  0.00000000E+00  0.00000000E+00
  0.00000000E+00  0.00000000E+00  0.00000000E+00
  0.00000000E+00  0.00000000E+00  0.00000000E+00
  0.00000000E+00  0.00000000E+00  0.00000000E+00
  0.00000000E+00  0.00000000E+00  0.00000000E+00
  0.00000000E+00  0.00000000E+00  0.00000000E+00
  0.00000000E+00  0.00000000E+00  0.00000000E+00
  0.00000000E+00  0.00000000E+00  0.00000000E+00
  0.00000000E+00  0.00000000E+00  0.00000000E+00
  0.00000000E+00  0.00000000E+00  0.00000000E+00
  0.00000000E+00  0.00000000E+00  0.00000000E+00
  0.00000000E+00  0.00000000E+00  0.00000000E+00
  0.00000000E+00  0.00000000E+00  0.00000000E+00
  0.00000000E+00  0.00000000E+00  0.00000000E+00
  0.00000000E+00  0.00000000E+00  0.00000000E+00
  0.00000000E+00  0.00000000E+00  0.00000000E+00
  0.00000000E+00  0.00000000E+00  0.00000000E+00
  0.00000000E+00  0.00000000E+00  0.00000000E+00
  0.00000000E+00  0.00000000E+00  0.00000000E+00
  0.00000000E+00  0.00000000E+00  0.00000000E+00
  0.00000000E+00  0.00000000E+00  0.00000000E+00
  0.00000000E+00  0.00000000E+00  0.00000000E+00
  0.00000000E+00  0.00000000E+00  0.00000000E+00
  0.00000000E+00  0.00000000E+00  0.00000000E+00
  0.00000000E+00  0.00000000E+00  0.00000000E+00
  0.00000000E+00  0.00000000E+00  0.00000000E+00
  0.00000000E+00  0.00000000E+00  0.00000000E+00
  0.00000000E+00  0.00000000E+00  0.00000000E+00
  0.00000000E+00  0.00000000E+00  0.00000000E+00
  0.00000000E+00  0.00000000E+00  0.00000000E+00
