Type_048 Type_148 
1.0
1.1256463038200000e+01 0.0000000000000000e+00 0.0000000000000000e+00 
5.0445621212000002e+00 1.0062820337100000e+01 0.0000000000000000e+00 
0.0000000000000000e+00 0.0000000000000000e+00 2.1744231843600001e+01 
Type_0 Type_1 
48 48 
Cartesian
   5.3522814389    4.8178807436    5.5084225035
   5.9359508116    3.8723794831    8.4444804618
   6.5512189292    2.8739170785   10.9825690562
   2.3899750501    0.6417605834    2.8323522751
   0.7393413243    0.5456603677   10.1396253794
   4.7686120527    3.3545316644    1.7966404224
   5.3522814305    2.4090304139    4.7326983807
   5.9359508195    1.4635291635    7.6687563389
   1.8774643416    3.7383591286    4.7326983807
   2.4611337307    2.7928578782    7.6687563389
   3.0828270206    1.9938791345   10.1390594826
   7.7586535059    4.4549157426    2.4897267103
  10.9805129580    4.8178807436    5.5084225035
  11.5641823307    3.8723794831    8.4444804618
  11.6552854398    3.7344323976   10.8003312777
   7.8745625840    0.7319719765    2.5723645453
   6.4635796930    0.5104225949   10.2819694106
  10.3968435718    3.3545316644    1.7966404224
  10.9805129496    2.4090304139    4.7326983807
  11.5641823386    1.4635291635    7.6687563389
   7.5056958608    3.7383591286    4.7326983807
   8.0893652498    2.7928578782    7.6687563389
   8.7095022819    1.8976486501   10.2807963267
  12.5502578383    4.6838603892    1.7966404224
   7.8745624994    9.8492909121    5.5084225035
   8.4582318722    8.9037896516    8.4444804618
   9.0734881679    7.9053495802   10.9825690607
   4.8311643168    5.5748586469    2.8560149015
   3.2616002288    5.5770449193   10.1395958353
   7.3313171440    8.0530317382    2.3522099018
   7.8745624911    7.4404405824    4.7326983807
   8.4582318801    6.4949393320    7.6687563389
   4.3997454022    8.7697692972    4.7326983807
   4.9834147912    7.8242680467    7.6687563389
   5.6050744024    7.0252730433   10.1391452621
   9.4443073798    9.7152705577    1.7966404224
  13.5027940186    9.8492909121    5.5084225035
  14.0864633913    8.9037896516    8.4444804618
  14.1775744193    8.7658236823   10.8003428362
  10.3968436446    5.7633821450    2.5723645453
   8.9859145715    5.5418340417   10.2820586441
  12.9191246324    8.3859418329    1.7966404224
  13.5027940102    7.4404405824    4.7326983807
  14.0864633992    6.4949393320    7.6687563389
  10.0279769213    8.7697692972    4.7326983807
  10.6116463104    7.8242680467    7.6687563389
  11.2317878405    6.9290891405   10.2807504700
  15.0283615451    9.6265962004    2.1912031767
   1.6618955858    1.6787142544    5.8721159165
   2.2455649698    0.7332129939    8.8081738748
   6.0761926194    4.8693564189    1.3358783444
   6.7064575583    2.6242155049    2.9360579583
   2.2455649706    3.8005525507    9.7959518563
   7.2901269369    4.7460538113    6.8598938980
   3.7688098968    1.6108939321    1.4887548692
   4.1841765742    0.6601450441    3.9238359397
   3.3548099141    4.8469019673    1.4988642900
   3.9643806934    3.9988377890    3.9238359397
   4.5480500712    3.0533365386    6.8598938980
   5.1317194552    2.1078352781    9.7959518563
   7.2901271049    1.6787142544    5.8721159165
   7.8737964889    0.7332129939    8.8081738748
  11.7030886889    3.6650694222    0.3089706575
  12.3346890774    2.6242155049    2.9360579583
  10.6470222117    5.3631801072   11.5173595156
   7.8737964897    3.8005525507    9.7959518563
  12.9183584560    4.7460538113    6.8598938980
   9.4396834963    1.5077648439    1.4635642094
   9.8124080933    0.6601450441    3.9238359397
   9.2286098394    4.9075280316    1.1288129768
   9.5926122126    3.9988377890    3.9238359397
  10.1762815903    3.0533365386    6.8598938980
  10.7599509743    2.1078352781    9.7959518563
   4.1841766464    6.7101244229    5.8721159165
   4.7678460304    5.7646231624    8.8081738748
   7.5175666454    9.5853277392    1.0718800327
   9.2287386189    7.6556256734    2.9360579583
   4.7678460312    8.8319627193    9.7959518563
   9.8124079975    9.7774639798    6.8598938980
   6.7064576348    5.6915552127    3.9238359397
   6.4866617540    9.0302479576    3.9238359397
   7.0703311318    8.0847467071    6.8598938980
   7.6540005158    7.1392454466    9.7959518563
   9.8124081655    6.7101244229    5.8721159165
  10.3960775495    5.7646231624    8.8081738748
  14.2396089273    9.0076842734    0.4434827843
  14.8569701380    7.6556256734    2.9360579583
   8.1246636166    0.3317184271   11.5173323367
  10.3960775503    8.8319627193    9.7959518563
  15.4406395166    9.7774639798    6.8598938980
  11.8861265937    6.6063343305    1.3885031530
  12.3346891539    5.6915552127    3.9238359397
  11.4889502113    9.8469084504    1.4024715238
  12.1148932731    9.0302479576    3.9238359397
  12.6985626509    8.0847467071    6.8598938980
  13.2822320349    7.1392454466    9.7959518563
