Structure 23 made from 02-1-7.xsd file  
   1.00000000000000     
    10.4033537510999992   -4.7892049999999999    0.0000000000000000
     0.0000000000000000    9.5784099999999999    0.0000000000000000
     0.0000000000000000    0.0000000000000000   20.6428913744000013
   Ni   S 
    37    37
Direct
  0.5804467959999968  0.0743751380000006  0.3538944740000005
  0.7625608119999967  0.1654321460000006  0.2326365260000003
  0.9446748270000001  0.2564891540000005  0.1113785780000001
  0.3983327810000006  0.9833181309999972  0.4751524220000007
  0.0351894730000026  0.8017464770000018  0.2730558419999980
  0.2173034879999989  0.8928034839999981  0.1517978939999978
  0.3994175030000022  0.9838604919999980  0.0305399459999975
  0.6709614430000030  0.6196324619999984  0.5155717379999984
  0.8530754579999993  0.7106894690000018  0.3943137899999982
  0.1257041200000018  0.3470038000000031  0.4347331060000030
  0.3078181349999980  0.4380608080000030  0.3134751580000028
  0.4899321500000013  0.5291178149999993  0.1922172100000026
  0.2303580120000035  0.0314337459999976  0.4110782670000006
  0.4124720269999997  0.1224907539999975  0.2898203190000004
  0.5945860429999996  0.2135477610000009  0.1685623710000002
  0.7767000580000030  0.3046047690000009  0.0473044229999999
  0.0493287190000018  0.9409191000000021  0.0877237389999976
  0.5029866739999989  0.6677480769999988  0.4514975829999983
  0.6851006890000022  0.7588050849999988  0.3302396349999981
  0.8672147039999984  0.8498620920000022  0.2089816869999979
  0.1398433660000009  0.4861764230000034  0.2494010030000027
  0.3219573809999972  0.5772334310000033  0.1281430550000024
  0.5040713960000005  0.6682904379999997  0.0068851070000022
  0.7756153360000013  0.3040624080000001  0.4919168990000031
  0.9577293509999976  0.3951194160000000  0.3706589510000029
  0.5804467959999968  0.3385811380000021  0.3538944740000005
  0.7625608119999967  0.4296381460000021  0.2326365260000003
  0.9446748270000001  0.5206951540000020  0.1113785780000001
  0.0351894730000026  0.0659524770000033  0.2730558419999980
  0.2173034879999989  0.1570094839999996  0.1517978939999978
  0.3994175030000022  0.2480664919999995  0.0305399459999975
  0.6709614430000030  0.8838384619999999  0.5155717379999984
  0.8530754579999993  0.9748954690000033  0.3943137899999982
  0.1257041200000018  0.6112097999999975  0.4347331060000030
  0.3078181349999980  0.7022668079999974  0.3134751580000028
  0.4899321500000013  0.7933238150000008  0.1922172100000026
  0.6720461649999976  0.8843808230000008  0.0709592620000024
  0.1844111170000033  0.1766752990000029  0.4842808009999970
  0.3665251319999996  0.2677323059999992  0.3630228529999968
  0.5486391470000029  0.3587893139999991  0.2417649049999966
  0.7307531619999992  0.4498463210000025  0.1205069570000035
  0.0033818240000016  0.0861606519999967  0.1609262730000012
  0.1854958389999979  0.1772176599999966  0.0396683250000009
  0.6391537940000021  0.9040466370000004  0.4034421690000016
  0.8212678089999983  0.9951036450000004  0.2821842210000014
  0.0938964699999971  0.6314179749999980  0.3226035369999991
  0.2760104850000005  0.7224749829999979  0.2013455889999989
  0.4581245010000004  0.8135319900000013  0.0800876409999987
  0.9117824550000009  0.5403609680000017  0.4438614849999993
  0.1267599410000031  0.4796347110000028  0.0808386320000025
  0.5804178960000002  0.2064636879999995  0.4446124760000032
  0.7625319109999964  0.2975206959999994  0.3233545280000030
  0.9446459259999997  0.3885777030000028  0.2020965800000027
  0.2172745880000022  0.0248920339999970  0.2425158960000005
  0.3993886029999985  0.1159490419999969  0.1212579480000002
  0.5815026180000018  0.2070060490000003  0.0000000000000000
  0.0351605729999989  0.9338350259999970  0.3637738440000007
  0.8530465569999990  0.8427780190000007  0.4850317920000009
  0.3077892339999977  0.5701493569999982  0.4041931599999984
  0.4899032490000010  0.6612063649999982  0.2829352119999982
  0.6720172639999973  0.7522633720000016  0.1616772639999979
  0.8541312790000006  0.8433203800000015  0.0404193159999977
  0.5486391470000029  0.0223593139999991  0.2417649049999966
  0.7307531619999992  0.1134163210000025  0.1205069570000035
  0.1844111170000033  0.8402452990000029  0.4842808009999970
  0.3665251319999996  0.9313023059999992  0.3630228529999968
  0.0033818240000016  0.7497306519999967  0.1609262730000012
  0.1854958389999979  0.8407876599999966  0.0396683250000009
  0.6391537940000021  0.5676166370000004  0.4034421690000016
  0.8212678089999983  0.6586736450000004  0.2821842210000014
  0.0938964699999971  0.2949879749999980  0.3226035369999991
  0.2760104850000005  0.3860449829999979  0.2013455889999989
  0.4581245010000004  0.4771019900000013  0.0800876409999987
  0.9117824550000009  0.2039309680000017  0.4438614849999993
 
  0.00000000E+00  0.00000000E+00  0.00000000E+00
  0.00000000E+00  0.00000000E+00  0.00000000E+00
  0.00000000E+00  0.00000000E+00  0.00000000E+00
  0.00000000E+00  0.00000000E+00  0.00000000E+00
  0.00000000E+00  0.00000000E+00  0.00000000E+00
  0.00000000E+00  0.00000000E+00  0.00000000E+00
  0.00000000E+00  0.00000000E+00  0.00000000E+00
  0.00000000E+00  0.00000000E+00  0.00000000E+00
  0.00000000E+00  0.00000000E+00  0.00000000E+00
  0.00000000E+00  0.00000000E+00  0.00000000E+00
  0.00000000E+00  0.00000000E+00  0.00000000E+00
  0.00000000E+00  0.00000000E+00  0.00000000E+00
  0.00000000E+00  0.00000000E+00  0.00000000E+00
  0.00000000E+00  0.00000000E+00  0.00000000E+00
  0.00000000E+00  0.00000000E+00  0.00000000E+00
  0.00000000E+00  0.00000000E+00  0.00000000E+00
  0.00000000E+00  0.00000000E+00  0.00000000E+00
  0.00000000E+00  0.00000000E+00  0.00000000E+00
  0.00000000E+00  0.00000000E+00  0.00000000E+00
  0.00000000E+00  0.00000000E+00  0.00000000E+00
  0.00000000E+00  0.00000000E+00  0.00000000E+00
  0.00000000E+00  0.00000000E+00  0.00000000E+00
  0.00000000E+00  0.00000000E+00  0.00000000E+00
  0.00000000E+00  0.00000000E+00  0.00000000E+00
  0.00000000E+00  0.00000000E+00  0.00000000E+00
  0.00000000E+00  0.00000000E+00  0.00000000E+00
  0.00000000E+00  0.00000000E+00  0.00000000E+00
  0.00000000E+00  0.00000000E+00  0.00000000E+00
  0.00000000E+00  0.00000000E+00  0.00000000E+00
  0.00000000E+00  0.00000000E+00  0.00000000E+00
  0.00000000E+00  0.00000000E+00  0.00000000E+00
  0.00000000E+00  0.00000000E+00  0.00000000E+00
  0.00000000E+00  0.00000000E+00  0.00000000E+00
  0.00000000E+00  0.00000000E+00  0.00000000E+00
  0.00000000E+00  0.00000000E+00  0.00000000E+00
  0.00000000E+00  0.00000000E+00  0.00000000E+00
  0.00000000E+00  0.00000000E+00  0.00000000E+00
  0.00000000E+00  0.00000000E+00  0.00000000E+00
  0.00000000E+00  0.00000000E+00  0.00000000E+00
  0.00000000E+00  0.00000000E+00  0.00000000E+00
  0.00000000E+00  0.00000000E+00  0.00000000E+00
  0.00000000E+00  0.00000000E+00  0.00000000E+00
  0.00000000E+00  0.00000000E+00  0.00000000E+00
  0.00000000E+00  0.00000000E+00  0.00000000E+00
  0.00000000E+00  0.00000000E+00  0.00000000E+00
  0.00000000E+00  0.00000000E+00  0.00000000E+00
  0.00000000E+00  0.00000000E+00  0.00000000E+00
  0.00000000E+00  0.00000000E+00  0.00000000E+00
  0.00000000E+00  0.00000000E+00  0.00000000E+00
  0.00000000E+00  0.00000000E+00  0.00000000E+00
  0.00000000E+00  0.00000000E+00  0.00000000E+00
  0.00000000E+00  0.00000000E+00  0.00000000E+00
  0.00000000E+00  0.00000000E+00  0.00000000E+00
  0.00000000E+00  0.00000000E+00  0.00000000E+00
  0.00000000E+00  0.00000000E+00  0.00000000E+00
  0.00000000E+00  0.00000000E+00  0.00000000E+00
  0.00000000E+00  0.00000000E+00  0.00000000E+00
  0.00000000E+00  0.00000000E+00  0.00000000E+00
  0.00000000E+00  0.00000000E+00  0.00000000E+00
  0.00000000E+00  0.00000000E+00  0.00000000E+00
  0.00000000E+00  0.00000000E+00  0.00000000E+00
  0.00000000E+00  0.00000000E+00  0.00000000E+00
  0.00000000E+00  0.00000000E+00  0.00000000E+00
  0.00000000E+00  0.00000000E+00  0.00000000E+00
  0.00000000E+00  0.00000000E+00  0.00000000E+00
  0.00000000E+00  0.00000000E+00  0.00000000E+00
  0.00000000E+00  0.00000000E+00  0.00000000E+00
  0.00000000E+00  0.00000000E+00  0.00000000E+00
  0.00000000E+00  0.00000000E+00  0.00000000E+00
  0.00000000E+00  0.00000000E+00  0.00000000E+00
  0.00000000E+00  0.00000000E+00  0.00000000E+00
  0.00000000E+00  0.00000000E+00  0.00000000E+00
  0.00000000E+00  0.00000000E+00  0.00000000E+00
  0.00000000E+00  0.00000000E+00  0.00000000E+00
