Type_048 Type_148                       
   1.00000000000000     
    11.2564630381999997    0.0000000000000000    0.0000000000000000
     5.0445621212000002   10.0628203370999998    0.0000000000000000
     0.0000000000000000    0.0000000000000000   21.7442318436000015
   Ty   Ty
    48    48
Direct
  0.2609206960044546  0.4787803599988010  0.2533279879979418
  0.3548805620016608  0.3848204930006744  0.3883549679997316
  0.3736821297958386  0.3660168185971457  0.4971308304865047
  0.1324899135290991  0.1168343299507626  0.1775011396429704
  0.0489352633648465  0.0544172860148464  0.4724170955169171
  0.2861763040325016  0.3395421439159563  0.1023610235996983
  0.3681989310042511  0.2393991279977712  0.2176530500015303
  0.4621587979997130  0.1454392620033360  0.3526800299987229
  0.0003019419993961  0.3715021239937357  0.2176530500015303
  0.0942618090037328  0.2775422579993005  0.3526800299987229
  0.1852855158501328  0.1907649902604973  0.4724173248421053
  0.4382450261283068  0.4538245286128273  0.1040579721911854
  0.7609206960044546  0.4787803599988010  0.2533279879979418
  0.8548805620016608  0.3848204930006744  0.3883549679997316
  0.8736777790367753  0.3660229400122077  0.4971365549195852
  0.6891681642514556  0.0555677106485177  0.1306536008415549
  0.5489235291158465  0.0544249191134654  0.4723617156024318
  0.7742390649993283  0.3333589940021469  0.0826260699997476
  0.8681989310042511  0.2393991279977712  0.2176530500015303
  0.9621587979997130  0.1454392620033360  0.3526800299987229
  0.5003019420082779  0.3715021239937357  0.2176530500015303
  0.5942618090037328  0.2775422579993005  0.3526800299987229
  0.6852807972697690  0.1907808073370845  0.4723587802814535
  0.9063420610019080  0.4654619910018027  0.0826260699997476
  0.2609206959977968  0.9787803599938343  0.2533279879979418
  0.3548805620038848  0.8848204929957006  0.3883549679997316
  0.3737334256568943  0.8659684730008124  0.4971453467040590
  0.1669608290003453  0.5727402409989679  0.1183010080007563
  0.0489201644177086  0.5544202183090761  0.4723589355456141
  0.2647941551797217  0.7328434715773966  0.1156203890430803
  0.3681989310064822  0.7393991279928045  0.2176530500015303
  0.4621587980019370  0.6454392619983693  0.3526800299987229
  0.0003019419971650  0.8715021239987024  0.2176530500015303
  0.0942618089970821  0.7775422579943267  0.3526800299987229
  0.1852734515755188  0.6907748812797792  0.4723643889275024
  0.3033703094628351  0.9300336588635858  0.1245824215536615
  0.7609206960066786  0.9787803599938343  0.2533279879979418
  0.8548805620038848  0.8848204929957006  0.3883549679997316
  0.8736889663777063  0.8660148488461843  0.4971316849981804
  0.6669608290003453  0.5727402409989679  0.1183010080007563
  0.5489233054133251  0.5544200623587585  0.4723586285584531
  0.7961920005581575  0.7570395036780937  0.1134424562588521
  0.8681989310064822  0.7393991279928045  0.2176530500015303
  0.9621587980019370  0.6454392619983693  0.3526800299987229
  0.5003019419971650  0.8715021239987024  0.2176530500015303
  0.5942618090059639  0.7775422579943267  0.3526800299987229
  0.6852798476791264  0.6907786713007411  0.4723581364003451
  0.9063420610041319  0.9654619909968361  0.0826260699997476
  0.0728776349993865  0.1668234349977240  0.2700539599989753
  0.1668375020004547  0.0728635679995975  0.4050809400007651
  0.4789177539986298  0.2607833010020997  0.1350269800017898
  0.2100681496995165  0.5296226415720682  0.5267288199086693
  0.0302334250019030  0.3776826399938784  0.4505080670018344
  0.4362735430005458  0.4716425070019454  0.3154810870000517
  0.3423136770025295  0.0656023879971457  0.1804541069982619
  0.0962564951705787  0.4602993400888735  0.0667162643010073
  0.1740986819989843  0.3973873779955071  0.1804541069982619
  0.2680585479994591  0.3034275120010648  0.3154810870000517
  0.3620184150005272  0.2094676450029382  0.4505080670018344
  0.5728776349993865  0.1668234349977240  0.2700539599989753
  0.6668375020004547  0.0728635679995975  0.4050809400007651
  0.8680946946593764  0.3713008052250260  0.0131940920223599
  0.9789177539986298  0.2607833010020997  0.1350269800017898
  0.7100669121393111  0.5296348261282731  0.5267294347383924
  0.5302334250019030  0.3776826399938784  0.4505080670018344
  0.9362735430005458  0.4716425070019454  0.3154810870000517
  0.7628715123828584  0.1553883724362137  0.0682828405840894
  0.8423136770025295  0.0656023879971457  0.1804541069982619
  0.5887250504234274  0.4807273082939787  0.0603003070299764
  0.6740986820078660  0.3973873779955071  0.1804541069982619
  0.7680585479994591  0.3034275120010648  0.3154810870000517
  0.8620184150005272  0.2094676450029382  0.4505080670018344
  0.0728776350016105  0.6668234349927573  0.2700539599989753
  0.1668375020026858  0.5728635679946237  0.4050809400007651
  0.4789177540008538  0.7607833009971330  0.1350269800017898
  0.2101218047197833  0.0295799994264598  0.5267469877889113
  0.0302334249996719  0.8776826399988451  0.4505080670018344
  0.4362735430027698  0.9716425069969787  0.3154810870000517
  0.2848629821001367  0.5885878693732991  0.0509362641212832
  0.3423136770003055  0.5656023880021124  0.1804541069982619
  0.1382324324590343  0.9032738491800885  0.0691822083999156
  0.1740986819967603  0.8973873780004737  0.1804541069982619
  0.2680585480016831  0.8034275119960981  0.3154810870000517
  0.3620184150027583  0.7094676449979715  0.4505080670018344
  0.5728776350016105  0.6668234349927573  0.2700539599989753
  0.6668375020026858  0.5728635679946237  0.4050809400007651
  0.7569343645719542  0.9209637667317025  0.0587183383613450
  0.9789177540008538  0.7607833009971330  0.1350269800017898
  0.7100776619696276  0.0296287287372863  0.5267262244755315
  0.5302334249996719  0.8776826399988451  0.4505080670018344
  0.9362735430027698  0.9716425069969787  0.3154810870000517
  0.7533626814937904  0.6411144968587621  0.0536184956675356
  0.8423136770003055  0.5656023880021124  0.1804541069982619
  0.6740986819967603  0.8973873780004737  0.1804541069982619
  0.7680585480016831  0.8034275119960981  0.3154810870000517
  0.8620184150027583  0.7094676449979715  0.4505080670018344
 
  0.00000000E+00  0.00000000E+00  0.00000000E+00
  0.00000000E+00  0.00000000E+00  0.00000000E+00
  0.00000000E+00  0.00000000E+00  0.00000000E+00
  0.00000000E+00  0.00000000E+00  0.00000000E+00
  0.00000000E+00  0.00000000E+00  0.00000000E+00
  0.00000000E+00  0.00000000E+00  0.00000000E+00
  0.00000000E+00  0.00000000E+00  0.00000000E+00
  0.00000000E+00  0.00000000E+00  0.00000000E+00
  0.00000000E+00  0.00000000E+00  0.00000000E+00
  0.00000000E+00  0.00000000E+00  0.00000000E+00
  0.00000000E+00  0.00000000E+00  0.00000000E+00
  0.00000000E+00  0.00000000E+00  0.00000000E+00
  0.00000000E+00  0.00000000E+00  0.00000000E+00
  0.00000000E+00  0.00000000E+00  0.00000000E+00
  0.00000000E+00  0.00000000E+00  0.00000000E+00
  0.00000000E+00  0.00000000E+00  0.00000000E+00
  0.00000000E+00  0.00000000E+00  0.00000000E+00
  0.00000000E+00  0.00000000E+00  0.00000000E+00
  0.00000000E+00  0.00000000E+00  0.00000000E+00
  0.00000000E+00  0.00000000E+00  0.00000000E+00
  0.00000000E+00  0.00000000E+00  0.00000000E+00
  0.00000000E+00  0.00000000E+00  0.00000000E+00
  0.00000000E+00  0.00000000E+00  0.00000000E+00
  0.00000000E+00  0.00000000E+00  0.00000000E+00
  0.00000000E+00  0.00000000E+00  0.00000000E+00
  0.00000000E+00  0.00000000E+00  0.00000000E+00
  0.00000000E+00  0.00000000E+00  0.00000000E+00
  0.00000000E+00  0.00000000E+00  0.00000000E+00
  0.00000000E+00  0.00000000E+00  0.00000000E+00
  0.00000000E+00  0.00000000E+00  0.00000000E+00
  0.00000000E+00  0.00000000E+00  0.00000000E+00
  0.00000000E+00  0.00000000E+00  0.00000000E+00
  0.00000000E+00  0.00000000E+00  0.00000000E+00
  0.00000000E+00  0.00000000E+00  0.00000000E+00
  0.00000000E+00  0.00000000E+00  0.00000000E+00
  0.00000000E+00  0.00000000E+00  0.00000000E+00
  0.00000000E+00  0.00000000E+00  0.00000000E+00
  0.00000000E+00  0.00000000E+00  0.00000000E+00
  0.00000000E+00  0.00000000E+00  0.00000000E+00
  0.00000000E+00  0.00000000E+00  0.00000000E+00
  0.00000000E+00  0.00000000E+00  0.00000000E+00
  0.00000000E+00  0.00000000E+00  0.00000000E+00
  0.00000000E+00  0.00000000E+00  0.00000000E+00
  0.00000000E+00  0.00000000E+00  0.00000000E+00
  0.00000000E+00  0.00000000E+00  0.00000000E+00
  0.00000000E+00  0.00000000E+00  0.00000000E+00
  0.00000000E+00  0.00000000E+00  0.00000000E+00
  0.00000000E+00  0.00000000E+00  0.00000000E+00
  0.00000000E+00  0.00000000E+00  0.00000000E+00
  0.00000000E+00  0.00000000E+00  0.00000000E+00
  0.00000000E+00  0.00000000E+00  0.00000000E+00
  0.00000000E+00  0.00000000E+00  0.00000000E+00
  0.00000000E+00  0.00000000E+00  0.00000000E+00
  0.00000000E+00  0.00000000E+00  0.00000000E+00
  0.00000000E+00  0.00000000E+00  0.00000000E+00
  0.00000000E+00  0.00000000E+00  0.00000000E+00
  0.00000000E+00  0.00000000E+00  0.00000000E+00
  0.00000000E+00  0.00000000E+00  0.00000000E+00
  0.00000000E+00  0.00000000E+00  0.00000000E+00
  0.00000000E+00  0.00000000E+00  0.00000000E+00
  0.00000000E+00  0.00000000E+00  0.00000000E+00
  0.00000000E+00  0.00000000E+00  0.00000000E+00
  0.00000000E+00  0.00000000E+00  0.00000000E+00
  0.00000000E+00  0.00000000E+00  0.00000000E+00
  0.00000000E+00  0.00000000E+00  0.00000000E+00
  0.00000000E+00  0.00000000E+00  0.00000000E+00
  0.00000000E+00  0.00000000E+00  0.00000000E+00
  0.00000000E+00  0.00000000E+00  0.00000000E+00
  0.00000000E+00  0.00000000E+00  0.00000000E+00
  0.00000000E+00  0.00000000E+00  0.00000000E+00
  0.00000000E+00  0.00000000E+00  0.00000000E+00
  0.00000000E+00  0.00000000E+00  0.00000000E+00
  0.00000000E+00  0.00000000E+00  0.00000000E+00
  0.00000000E+00  0.00000000E+00  0.00000000E+00
  0.00000000E+00  0.00000000E+00  0.00000000E+00
  0.00000000E+00  0.00000000E+00  0.00000000E+00
  0.00000000E+00  0.00000000E+00  0.00000000E+00
  0.00000000E+00  0.00000000E+00  0.00000000E+00
  0.00000000E+00  0.00000000E+00  0.00000000E+00
  0.00000000E+00  0.00000000E+00  0.00000000E+00
  0.00000000E+00  0.00000000E+00  0.00000000E+00
  0.00000000E+00  0.00000000E+00  0.00000000E+00
  0.00000000E+00  0.00000000E+00  0.00000000E+00
  0.00000000E+00  0.00000000E+00  0.00000000E+00
  0.00000000E+00  0.00000000E+00  0.00000000E+00
  0.00000000E+00  0.00000000E+00  0.00000000E+00
  0.00000000E+00  0.00000000E+00  0.00000000E+00
  0.00000000E+00  0.00000000E+00  0.00000000E+00
  0.00000000E+00  0.00000000E+00  0.00000000E+00
  0.00000000E+00  0.00000000E+00  0.00000000E+00
  0.00000000E+00  0.00000000E+00  0.00000000E+00
  0.00000000E+00  0.00000000E+00  0.00000000E+00
  0.00000000E+00  0.00000000E+00  0.00000000E+00
  0.00000000E+00  0.00000000E+00  0.00000000E+00
  0.00000000E+00  0.00000000E+00  0.00000000E+00
  0.00000000E+00  0.00000000E+00  0.00000000E+00
