Structure 9 made from -211-8.xsd file
1.0
        9.4251025535        3.5732980427        0.0000000000
        0.0000000000       10.0797329849        0.0000000000
        0.0000000000       -0.0000000000       20.6835035552
   Ni    S
   36   36
Direct
     0.397058890     0.794951791     0.118162206
     0.547327402     0.644683279     0.245099231
     0.697595915     0.494414766     0.372036255
     0.113815061     0.411528954     0.160474548
     0.264083573     0.261260441     0.287411572
     0.414352086     0.110991929     0.414348596
     0.963546548     0.561797466     0.033537523
     0.680302719     0.178374628     0.075849865
     0.830571232     0.028106116     0.202786889
     0.980839744     0.877837604     0.329723914
     0.357357047     0.570447634     0.084624683
     0.507625560     0.420179121     0.211561707
     0.657894072     0.269910609     0.338498732
     0.808162585     0.119642096     0.465435756
     0.074113218     0.187024796     0.126937024
     0.224381731     0.036756284     0.253874049
     0.374650243     0.886487771     0.380811073
     0.524918755     0.736219259     0.507748097
     0.923844706     0.337293308     0.000000000
     0.091406414     0.503064934     0.423123414
     0.640600877     0.953870471     0.042312341
     0.790869389     0.803601959     0.169249366
     0.941137901     0.653333446     0.296186390
     0.032666742     0.159343939     0.431898232
     0.581861205     0.610149476     0.051087159
     0.732129717     0.459880964     0.178024184
     0.882398230     0.309612451     0.304961208
     0.298617376     0.226726639     0.093399501
     0.448885888     0.076458126     0.220336525
     0.599154400     0.926189614     0.347273550
     0.749422913     0.775921101     0.474210574
     0.015373546     0.843303801     0.135711842
     0.165642059     0.693035289     0.262648867
     0.315910571     0.542766776     0.389585891
     0.466179084     0.392498264     0.516522915
     0.865105034     0.993572314     0.008774818
     0.036604829     0.955193852     0.489282822
     0.585799292     0.405999389     0.108471749
     0.736067804     0.255730877     0.235408774
     0.886336316     0.105462365     0.362345798
     0.152286950     0.172845064     0.023847066
     0.302555462     0.022576552     0.150784091
     0.452823975     0.872308040     0.277721115
     0.603092487     0.722039527     0.404658139
     0.019311633     0.639153714     0.193096432
     0.169580146     0.488885202     0.320033456
     0.319848658     0.338616690     0.446970481
     0.869043121     0.789422227     0.066159408
     0.486085615     0.842143066     0.024240148
     0.636354127     0.691874554     0.151177172
     0.786622640     0.541606041     0.278114197
     0.936891152     0.391337529     0.405051221
     0.202841786     0.458720229     0.066552489
     0.353110298     0.308451716     0.193489514
     0.503378810     0.158183204     0.320426538
     0.653647323     0.007914691     0.447363562
     0.069866469     0.925028879     0.235801855
     0.220134981     0.774760366     0.362738880
     0.370403494     0.624491854     0.489675904
     0.919597956     0.075297391     0.108864831
     0.200210450     0.791588231     0.066945571
     0.350478963     0.641319718     0.193882595
     0.500747475     0.491051206     0.320819620
     0.651015988     0.340782693     0.447756644
     0.067235134     0.257896881     0.236194937
     0.217503646     0.107628368     0.363131961
     0.367772158     0.957359856     0.490068986
     0.916966621     0.408165393     0.109257913
     0.483454280     0.175011068     0.024633230
     0.633722792     0.024742556     0.151570254
     0.783991304     0.874474043     0.278507278
     0.934259817     0.724205531     0.405444303
