Structure 49 made from -102-8.xsd file
1.0
       11.2564630382        0.0000000000        0.0000000000
        0.0000000000        9.5784100000        0.0000000000
        0.0000000000        0.0000000000       17.1924924047
   Ni    S
   26   26
Direct
     0.439334990     0.463887997     0.162833771
     0.491186924     0.463887997     0.342246010
     0.163409030     0.963887997     0.073127651
     0.215260964     0.963887997     0.252539890
     0.439334990     0.199681997     0.162833771
     0.491186924     0.199681997     0.342246010
     0.163409030     0.699681997     0.073127651
     0.215260964     0.699681997     0.252539890
     0.130639703     0.331784997     0.139132876
     0.182491637     0.331784997     0.318545115
     0.354713728     0.831784997     0.049426756
     0.406565662     0.831784997     0.228838995
     0.458417597     0.831784997     0.408251235
     0.939334990     0.463887997     0.162833771
     0.991186924     0.463887997     0.342246010
     0.663409030     0.963887997     0.073127651
     0.715260964     0.963887997     0.252539890
     0.939334990     0.199681997     0.162833771
     0.991186924     0.199681997     0.342246010
     0.663409030     0.699681997     0.073127651
     0.715260964     0.699681997     0.252539890
     0.630639703     0.331784997     0.139132876
     0.682491637     0.331784997     0.318545115
     0.854713728     0.831784997     0.049426756
     0.906565662     0.831784997     0.228838995
     0.958417597     0.831784997     0.408251235
     0.059637103     0.163569997     0.059526290
     0.111489038     0.163569997     0.238938529
     0.335563063     0.663569997     0.149232409
     0.059637103     0.499999997     0.059526290
     0.111489038     0.499999997     0.238938529
     0.163340972     0.499999997     0.418350768
     0.335563063    -0.000000003     0.149232409
     0.316036869     0.331784997     0.089706120
     0.367888803     0.331784997     0.269118359
     0.091962844     0.831784997     0.179412239
     0.143814778     0.831784997     0.358824478
     0.559637103     0.163569997     0.059526290
     0.611489038     0.163569997     0.238938529
     0.663340972     0.163569997     0.418350768
     0.835563063     0.663569997     0.149232409
     0.887414997     0.663569997     0.328644649
     0.559637103     0.499999997     0.059526290
     0.611489038     0.499999997     0.238938529
     0.663340972     0.499999997     0.418350768
     0.835563063    -0.000000003     0.149232409
     0.887414997    -0.000000003     0.328644649
     0.816036869     0.331784997     0.089706120
     0.867888803     0.331784997     0.269118359
     0.540110910     0.831784997     0.000000000
     0.591962844     0.831784997     0.179412239
     0.643814778     0.831784997     0.358824478
