Type_036 Type_136                       
   1.00000000000000     
    10.0797329848999997    0.0000000000000000    0.0000000000000000
     3.5732980426999998    9.4251025535000004    0.0000000000000000
     0.0000000000000000    0.0000000000000000   20.6835035552000015
   Ty   Ty
    36    36
Direct
  0.3970588899984335  0.7949517910038750  0.1181622060004202
  0.5473274020009384  0.6446832789998211  0.2450992310016815
  0.6975959150018625  0.4944147659984424  0.3720362550021363
  0.8637413885333558  0.2309939580224025  0.4214812995551824
  0.1138150610011408  0.4115289540016391  0.1604745480011047
  0.2640835730000504  0.2612604410002533  0.2874115720015666
  0.4143520860045697  0.1109919289961994  0.4143485960020215
  0.1141899150910390  0.7517251382658898  0.4450531347908750
  0.7159632566050220  0.2139875352922331  0.1347383457141333
  0.8305712320002456  0.0281061160020641  0.2027868890009970
  0.9808397439890726  0.8778376040086258  0.3297239140022512
  0.3645322205529027  0.5525957569836635  0.1041383269305172
  0.5076255599924124  0.4201791210037698  0.2115617070010316
  0.6578940719949173  0.2699106089997230  0.3384987320022859
  0.0741132180005195  0.1870247960055806  0.1269370240004619
  0.2243817309951126  0.0367562840015339  0.2538740490017162
  0.3746502430039484  0.8864877710001480  0.3808110730021710
  0.4331992204880635  0.7144654022994530  0.4622161227610988
  0.8941088483932091  0.2641084683344488  0.0531040851695508
  0.0782793443785295  0.5075868203708254  0.4085541202943617
  0.5850780510270468  0.8820035098836101  0.0877575136173547
  0.7908693889933005  0.8036019590033447  0.1692493660011465
  0.9411379009922101  0.6533334460019589  0.2961863900016013
  0.0995245588312841  0.9936790585925337  0.3947972569689284
  0.5921899826068397  0.5938191389675254  0.0716244381299518
  0.7321297169994381  0.4598809639997441  0.1780241840011811
  0.8823982300003621  0.3096124509983582  0.3049612080016431
  0.2986173759996333  0.2267266390015550  0.0933995010006115
  0.4488858879985500  0.0764581260001691  0.2203365250010663
  0.5991543999972961  0.9261896140067307  0.3472735500023276
  0.7354676470444090  0.8113246569460770  0.4443737580081901
  0.0153735459967379  0.8433038010019800  0.1357118420004966
  0.1656420590012502  0.6930352889979332  0.2626488670017508
  0.3159105709964010  0.5427667760071557  0.3895858910022127
  0.4537712879238214  0.4060735531921367  0.4741016474761892
  0.7788811032915817  0.9822576266782477  0.0764067753841786
  0.9847457259464036  0.9573720667738712  0.4673097692131591
  0.5857992919939576  0.4059993890017708  0.1084717490009552
  0.7360678039964696  0.2557308769977169  0.2354087740022095
  0.8982146432891014  0.1044313380690483  0.3414780135556086
  0.1129275419619518  0.2331980259762574  0.0367359524450066
  0.3025554619946504  0.0225765519995278  0.1507840910016398
  0.4528239749954110  0.8723080400060894  0.2777211150020946
  0.6030924869943206  0.7220395270047106  0.4046581389977248
  0.0193116330036815  0.6391537139999599  0.1930964320015249
  0.1695801459945159  0.4888852020065215  0.3200334560019868
  0.2996708498652794  0.3490091707149077  0.4292242090856035
  0.8837000547966412  0.7707596616338535  0.0789130593056413
  0.4853568178107466  0.7813834408162634  0.0279655775558680
  0.6363541270001392  0.6918745539992486  0.1511771719986896
  0.7866226400010632  0.5416060409978627  0.2781141969999439
  0.9368911519898901  0.3913375290044243  0.4050512210004058
  0.2290203152244317  0.4437458351842452  0.0834518906815518
  0.3531102979992511  0.3084517159996736  0.1934895139993742
  0.5033788100017560  0.1581832039956268  0.3204265379998361
  0.6270515819512568  0.0201678880437655  0.4333273121732191
  0.0698664689981925  0.9250288790080461  0.2358018549992593
  0.2201349809971020  0.7747603660066602  0.3627388800005207
  0.3031041217113426  0.6065464648421326  0.4873717296635505
  0.9195979559974390  0.0752973910014845  0.1088648309988045
  0.2134633141241693  0.7587199963616840  0.0886235283692614
  0.3504789629935630  0.6413197180072459  0.1938825950012628
  0.5007474749960750  0.4910512060031991  0.3208196199976854
  0.6517480355076870  0.3498828202432023  0.4331705493360403
  0.0672351339962702  0.2578968810050100  0.2361949370019474
  0.2175036459951798  0.1076283680036241  0.3631319610024022
  0.3959464655191596  0.9371208789574439  0.4733177100375130
  0.9212952714639613  0.3981878889165316  0.1231784593263185
  0.4604099607750882  0.0741060005167427  0.0477116296794833
  0.6337227919982169  0.0247425559962124  0.1515702540013777
  0.7839913039933677  0.8744740430054350  0.2785072780018325
  0.9342598169978871  0.7242055310013882  0.4054443029982551
 
  0.00000000E+00  0.00000000E+00  0.00000000E+00
  0.00000000E+00  0.00000000E+00  0.00000000E+00
  0.00000000E+00  0.00000000E+00  0.00000000E+00
  0.00000000E+00  0.00000000E+00  0.00000000E+00
  0.00000000E+00  0.00000000E+00  0.00000000E+00
  0.00000000E+00  0.00000000E+00  0.00000000E+00
  0.00000000E+00  0.00000000E+00  0.00000000E+00
  0.00000000E+00  0.00000000E+00  0.00000000E+00
  0.00000000E+00  0.00000000E+00  0.00000000E+00
  0.00000000E+00  0.00000000E+00  0.00000000E+00
  0.00000000E+00  0.00000000E+00  0.00000000E+00
  0.00000000E+00  0.00000000E+00  0.00000000E+00
  0.00000000E+00  0.00000000E+00  0.00000000E+00
  0.00000000E+00  0.00000000E+00  0.00000000E+00
  0.00000000E+00  0.00000000E+00  0.00000000E+00
  0.00000000E+00  0.00000000E+00  0.00000000E+00
  0.00000000E+00  0.00000000E+00  0.00000000E+00
  0.00000000E+00  0.00000000E+00  0.00000000E+00
  0.00000000E+00  0.00000000E+00  0.00000000E+00
  0.00000000E+00  0.00000000E+00  0.00000000E+00
  0.00000000E+00  0.00000000E+00  0.00000000E+00
  0.00000000E+00  0.00000000E+00  0.00000000E+00
  0.00000000E+00  0.00000000E+00  0.00000000E+00
  0.00000000E+00  0.00000000E+00  0.00000000E+00
  0.00000000E+00  0.00000000E+00  0.00000000E+00
  0.00000000E+00  0.00000000E+00  0.00000000E+00
  0.00000000E+00  0.00000000E+00  0.00000000E+00
  0.00000000E+00  0.00000000E+00  0.00000000E+00
  0.00000000E+00  0.00000000E+00  0.00000000E+00
  0.00000000E+00  0.00000000E+00  0.00000000E+00
  0.00000000E+00  0.00000000E+00  0.00000000E+00
  0.00000000E+00  0.00000000E+00  0.00000000E+00
  0.00000000E+00  0.00000000E+00  0.00000000E+00
  0.00000000E+00  0.00000000E+00  0.00000000E+00
  0.00000000E+00  0.00000000E+00  0.00000000E+00
  0.00000000E+00  0.00000000E+00  0.00000000E+00
  0.00000000E+00  0.00000000E+00  0.00000000E+00
  0.00000000E+00  0.00000000E+00  0.00000000E+00
  0.00000000E+00  0.00000000E+00  0.00000000E+00
  0.00000000E+00  0.00000000E+00  0.00000000E+00
  0.00000000E+00  0.00000000E+00  0.00000000E+00
  0.00000000E+00  0.00000000E+00  0.00000000E+00
  0.00000000E+00  0.00000000E+00  0.00000000E+00
  0.00000000E+00  0.00000000E+00  0.00000000E+00
  0.00000000E+00  0.00000000E+00  0.00000000E+00
  0.00000000E+00  0.00000000E+00  0.00000000E+00
  0.00000000E+00  0.00000000E+00  0.00000000E+00
  0.00000000E+00  0.00000000E+00  0.00000000E+00
  0.00000000E+00  0.00000000E+00  0.00000000E+00
  0.00000000E+00  0.00000000E+00  0.00000000E+00
  0.00000000E+00  0.00000000E+00  0.00000000E+00
  0.00000000E+00  0.00000000E+00  0.00000000E+00
  0.00000000E+00  0.00000000E+00  0.00000000E+00
  0.00000000E+00  0.00000000E+00  0.00000000E+00
  0.00000000E+00  0.00000000E+00  0.00000000E+00
  0.00000000E+00  0.00000000E+00  0.00000000E+00
  0.00000000E+00  0.00000000E+00  0.00000000E+00
  0.00000000E+00  0.00000000E+00  0.00000000E+00
  0.00000000E+00  0.00000000E+00  0.00000000E+00
  0.00000000E+00  0.00000000E+00  0.00000000E+00
  0.00000000E+00  0.00000000E+00  0.00000000E+00
  0.00000000E+00  0.00000000E+00  0.00000000E+00
  0.00000000E+00  0.00000000E+00  0.00000000E+00
  0.00000000E+00  0.00000000E+00  0.00000000E+00
  0.00000000E+00  0.00000000E+00  0.00000000E+00
  0.00000000E+00  0.00000000E+00  0.00000000E+00
  0.00000000E+00  0.00000000E+00  0.00000000E+00
  0.00000000E+00  0.00000000E+00  0.00000000E+00
  0.00000000E+00  0.00000000E+00  0.00000000E+00
  0.00000000E+00  0.00000000E+00  0.00000000E+00
  0.00000000E+00  0.00000000E+00  0.00000000E+00
  0.00000000E+00  0.00000000E+00  0.00000000E+00
