Type_026 Type_126                       
   1.00000000000000     
    11.2564630381999997    0.0000000000000000    0.0000000000000000
     0.0000000000000000    9.5784099999999999    0.0000000000000000
     0.0000000000000000    0.0000000000000000   17.1924924047000012
   Ty   Ty
    26    26
Direct
  0.4393349899979597  0.4638879969953251  0.1628337709973167
  0.4776300770992208  0.4823510261201989  0.3205531993600559
  0.1843829973817321  0.9550808443781378  0.0905828837227958
  0.2071730979692248  0.9727132837809194  0.2383426509049826
  0.4256995413246827  0.1933354865369097  0.1842032685344819
  0.4947441573077427  0.2177543892775518  0.3266752891084366
  0.1586539005671170  0.6816242200010265  0.1028120376087429
  0.2152609639970393  0.6996819970015906  0.2525398899994897
  0.1306397029963620  0.3317849969984579  0.1391328760015114
  0.1824916370025633  0.3317849969984579  0.3185451150004752
  0.5212785297554987  0.6725439638520356  0.1068205119926589
  0.3967987897301555  0.8307133292581952  0.2110856913281438
  0.5437895060133258  0.8082365019246396  0.3069465839901895
  0.9393349899979597  0.4638879969953251  0.1628337709973167
  0.9699131858426000  0.4945151991823309  0.3134986300082119
  0.7378784374286198  0.8274468456455750  0.1052160023235160
  0.7057704363119726  0.9689623080761862  0.2381992097248471
  0.9393349899979597  0.1996819970015906  0.1628337709973167
  0.9972987753527178  0.2236331429955527  0.3317175719467471
  0.7035905990916334  0.5370689120741332  0.1089545267670360
  0.7152609639970393  0.6996819970015906  0.2525398899994897
  0.6235957850595355  0.3246698142280380  0.1581060814868778
  0.6857938026361126  0.3336091825156799  0.3014346155932159
  0.9792400230510268  0.9308944452889349  0.0869107659801287
  0.8974738090922969  0.8325566817561594  0.2144209306494886
  0.0472875441063181  0.8094945244983265  0.3101417685513894
  0.0671270937803214  0.1317363614002716  0.0838183837153252
  0.1114890379989788  0.1635699970036768  0.2389385289986805
  0.1504736355329328  0.1614666799708928  0.3866315852076738
  0.3355630629960302  0.6635699970036768  0.1492324090018826
  0.3958053824971728  0.6790232148341957  0.3047270806801592
  0.0673738704179385  0.4987492888798855  0.0782892203362024
  0.1114890379989788  0.4999999970036768  0.2389385289986805
  0.0554106074335508  0.3896936873030086  0.3994059324244787
  0.3355630629960302  0.9999999970036768  0.1492324090018826
  0.3135661677315298  0.3204536815191688  0.1176634907133618
  0.3678888029967027  0.3317849969984579  0.2691183590015811
  0.0971745424373509  0.8189272531662368  0.0189294001497444
  0.0919628440023317  0.8317849969984579  0.1794122389989710
  0.2158225629361183  0.8551045988217254  0.3383538146633001
  0.6114890379989788  0.1635699970036768  0.2389385289986805
  0.8355630629960302  0.6635699970036768  0.1492324090018826
  0.8929563217583620  0.6918970764667591  0.3103436753673563
  0.5468839088982946  0.4515767257509324  0.0675807166203768
  0.6114890379989788  0.4999999970036768  0.2389385289986805
  0.5755034009453723  0.3609545320152279  0.3953545649752215
  0.8355630629960302  0.9999999970036768  0.1492324090018826
  0.8029527569208170  0.3429723328506498  0.1142972354062408
  0.8678888029967027  0.3317849969984579  0.2691183590015811
  0.6572926055183927  0.6938919883675894  0.0282109328236473
  0.5919628440023317  0.8317849969984579  0.1794122389989710
  0.7089869263210602  0.8571888373435641  0.3397159022506457
 
  0.00000000E+00  0.00000000E+00  0.00000000E+00
  0.00000000E+00  0.00000000E+00  0.00000000E+00
  0.00000000E+00  0.00000000E+00  0.00000000E+00
  0.00000000E+00  0.00000000E+00  0.00000000E+00
  0.00000000E+00  0.00000000E+00  0.00000000E+00
  0.00000000E+00  0.00000000E+00  0.00000000E+00
  0.00000000E+00  0.00000000E+00  0.00000000E+00
  0.00000000E+00  0.00000000E+00  0.00000000E+00
  0.00000000E+00  0.00000000E+00  0.00000000E+00
  0.00000000E+00  0.00000000E+00  0.00000000E+00
  0.00000000E+00  0.00000000E+00  0.00000000E+00
  0.00000000E+00  0.00000000E+00  0.00000000E+00
  0.00000000E+00  0.00000000E+00  0.00000000E+00
  0.00000000E+00  0.00000000E+00  0.00000000E+00
  0.00000000E+00  0.00000000E+00  0.00000000E+00
  0.00000000E+00  0.00000000E+00  0.00000000E+00
  0.00000000E+00  0.00000000E+00  0.00000000E+00
  0.00000000E+00  0.00000000E+00  0.00000000E+00
  0.00000000E+00  0.00000000E+00  0.00000000E+00
  0.00000000E+00  0.00000000E+00  0.00000000E+00
  0.00000000E+00  0.00000000E+00  0.00000000E+00
  0.00000000E+00  0.00000000E+00  0.00000000E+00
  0.00000000E+00  0.00000000E+00  0.00000000E+00
  0.00000000E+00  0.00000000E+00  0.00000000E+00
  0.00000000E+00  0.00000000E+00  0.00000000E+00
  0.00000000E+00  0.00000000E+00  0.00000000E+00
  0.00000000E+00  0.00000000E+00  0.00000000E+00
  0.00000000E+00  0.00000000E+00  0.00000000E+00
  0.00000000E+00  0.00000000E+00  0.00000000E+00
  0.00000000E+00  0.00000000E+00  0.00000000E+00
  0.00000000E+00  0.00000000E+00  0.00000000E+00
  0.00000000E+00  0.00000000E+00  0.00000000E+00
  0.00000000E+00  0.00000000E+00  0.00000000E+00
  0.00000000E+00  0.00000000E+00  0.00000000E+00
  0.00000000E+00  0.00000000E+00  0.00000000E+00
  0.00000000E+00  0.00000000E+00  0.00000000E+00
  0.00000000E+00  0.00000000E+00  0.00000000E+00
  0.00000000E+00  0.00000000E+00  0.00000000E+00
  0.00000000E+00  0.00000000E+00  0.00000000E+00
  0.00000000E+00  0.00000000E+00  0.00000000E+00
  0.00000000E+00  0.00000000E+00  0.00000000E+00
  0.00000000E+00  0.00000000E+00  0.00000000E+00
  0.00000000E+00  0.00000000E+00  0.00000000E+00
  0.00000000E+00  0.00000000E+00  0.00000000E+00
  0.00000000E+00  0.00000000E+00  0.00000000E+00
  0.00000000E+00  0.00000000E+00  0.00000000E+00
  0.00000000E+00  0.00000000E+00  0.00000000E+00
  0.00000000E+00  0.00000000E+00  0.00000000E+00
  0.00000000E+00  0.00000000E+00  0.00000000E+00
  0.00000000E+00  0.00000000E+00  0.00000000E+00
  0.00000000E+00  0.00000000E+00  0.00000000E+00
  0.00000000E+00  0.00000000E+00  0.00000000E+00
