Type_036 Type_136 
1.0
1.6884694054200001e+01 0.0000000000000000e+00 0.0000000000000000e+00 
0.0000000000000000e+00 9.5784099999999999e+00 0.0000000000000000e+00 
0.0000000000000000e+00 0.0000000000000000e+00 1.6173863021300001e+01 
Type_0 Type_1 
36 36 
Cartesian
   1.1840281572    8.8715310321    4.6753262219
   1.6551871918    8.8030358032    2.1817572545
  10.2895413004    3.9686686147    3.3784962030
   9.2468521063    4.7534945957    1.4299098187
   4.0084365668    4.0556245298    4.4964460857
   4.5587636638    3.9549954549    1.8459276114
  11.5946016233    0.5353479379    5.0948911000
  12.7426182745    8.8448295298    2.9541742926
   6.9198304750    8.8448295298    3.9823554826
   8.5685927239    8.1479313123    2.3129158337
  15.5355723161    3.1064304978    4.6340139246
  15.6540121827    4.0556245298    2.4400837057
   6.2651759680    6.4943641437    4.7923411319
   7.4373945126    6.0621597766    2.6444096842
  15.8283224530    0.5317562260    4.6030592091
  16.4119918310    0.5317562260    1.5185156554
   1.8550223070    5.3209612260    4.0889686222
   2.1270328536    5.3201599793    1.4689738762
   9.1403756260    0.0903515568    4.4999170581
  10.5892040147    0.5317562260    2.5466968454
   4.7664161983    0.5317562260    3.5748780192
   6.6321205476    0.5133319246    1.4313703870
  12.2302385392    5.4674326615    3.9895981028
  13.5005979229    5.3209612260    2.0326062423
   1.1641787417    1.9175773253    4.6493850930
   1.6583188139    1.8308324012    2.1712083667
   9.8312243663    6.5862979222    3.4682648957
  10.9741703251    7.4219110508    1.6014246233
   4.0084365668    6.5862979222    4.4964460857
   4.5838973879    6.6982244899    1.8644707442
  13.0508125604    2.5147561782    5.1469554353
  12.7426182745    1.7970929222    2.9541742926
   6.8278536604    1.7405137367    3.7812667635
   7.9799338350    2.5891958166    1.8384572205
  16.2400962419    7.2635408715    4.7324810188
  15.6540121827    6.5862979222    2.4400837057
   0.6324466160    1.8368202439    0.4432703749
   8.1497731150    7.2477609308    4.4355931460
   9.0480542010    6.7263316092    0.9581621899
  16.4826075814    1.9409704828    5.9907168781
  16.6559214603    2.1429884642    3.0845435538
   2.0294051790    7.0292647694    5.2453150581
   2.6826213142    6.9321934642    2.5704529669
  10.8331336608    2.1429884642    4.1127247437
  10.0055888458    2.7790428792    1.5335331304
   5.0149168921    2.2376614316    4.7208739200
   5.5940152224    2.1429884642    2.0563623800
  13.7445275690    6.9321934642    3.5986341568
  14.3525073876    6.7743162585    0.9045813745
   2.5133042869    0.5317562260    3.6034100560
  10.4758309784    5.2845036208    4.9804273806
  11.2474859946    5.3209612260    2.0611382791
   4.9111100385    5.3385333051    5.8504421463
   5.4246981782    5.3209612260    3.0893194691
  13.5752105248    0.5317562260    4.6315912459
  14.2565537571    0.5793521522    2.0658911666
   0.0723550894    5.3261446768    1.3870014495
   7.4240625743    0.6799795028    5.4510621154
   8.3360920864    0.5317562260    2.5752288660
  16.4866044329    5.3209612260    4.1175006429
   0.6381049830    8.8062682460    0.4475940140
   8.1721579117    4.1707854092    3.1950706673
  16.5124939553    8.7775432554    6.0339226034
  16.6559214603    8.4989339879    3.0845435538
   2.1408323762    3.6559709980    5.2973977700
   2.6826213142    3.7097289879    2.5704529669
  10.8331336608    8.4989339879    4.1127247437
  11.7954894969    9.2285824013    1.1481238046
   5.0870224882    8.3449425524    4.8535345243
   5.5940152224    8.4989339879    2.0563623800
  13.7445275690    3.7097289879    3.5986341568
  14.4069742191    3.9458785189    0.8568180448
