Type_027 Type_127 
1.0
9.5784099999999999e+00 0.0000000000000000e+00 0.0000000000000000e+00 
-4.7892049999999999e+00 8.8693028200999997e+00 0.0000000000000000e+00 
0.0000000000000000e+00 0.0000000000000000e+00 1.9011135740000000e+01 
Type_0 Type_1 
27 27 
Cartesian
   1.7973757105    7.0064240172    4.8934299332
   1.6783256074    6.0481523815    7.5010022007
   1.0363673235    2.6505526316    2.0872339163
   1.7973757057    1.4639370388    3.9147439465
   1.7973757009    0.3527923336    6.8508019064
   6.5865807057    4.7907528894    2.9360579599
   6.5865807057    3.6796081754    5.8721159198
   6.1014196716    3.1063405205    8.1588095726
   3.0610698488    7.0487484960    2.7729713097
   3.0627123971    4.9566720992    4.1177058051
   3.0627124067    3.8455273851    7.0537637650
   3.1604504965    1.4401689736    1.6353406984
  -1.7264925981    8.2834879410    3.1390198184
  -1.7264925981    7.1723432269    6.0750777783
  -1.7266982147    6.1495428566    8.2517462159
   7.8519174067    2.7410009626    2.1603338318
   7.8519174019    1.6298562574    5.0963917917
   7.8519041967    0.5635982129    7.5271159773
   4.3280491029    7.0064240172    4.8934299332
   4.4472231019    6.0479975336    7.5006546298
   5.5473540991    2.1002660764    1.9160154877
   4.3280490981    1.4639370388    3.9147439465
   4.3280490933    0.3527923336    6.8508019064
  -1.7788310577    5.0740906373    0.7440553286
  -0.4611559019    4.7907528894    2.9360579599
  -0.4611559019    3.6796081754    5.8721159198
   0.0237667137    3.1060816492    8.1590589195
   4.7053474402    5.8664419292    3.1497613581
   4.6739446400    4.8705796836    5.8449573907
   4.4725484818    4.2511601585    8.5284855506
   4.7131847697    0.2212987706    2.2019706169
  -0.1152603552    8.1973955254    4.8662714041
  -0.1330661664    7.2056716211    7.5102424058
  -0.2475045251    3.8131027283    1.0454543937
  -0.1152603600    2.6549085470    3.8875854175
  -0.1152603600    1.5437638330    6.8236433773
   7.1914471503    1.1054391541    1.2122732053
   3.0658332447    8.5581306893    4.1936921907
   3.0627124019    7.4806568140    6.8327353580
   3.0627123971    3.0493145497    2.9179914114
   3.0627124067    1.9381698356    5.8540493713
   3.0627203375    0.6276058829    8.3869678763
  -1.7322004761    6.3722046094    2.3026140048
  -1.7264925981    5.2649856774    4.8753633847
  -1.7264926029    4.1538409722    7.8114213446
   1.4186636906    5.8581534224    3.1453412301
   1.4514801637    4.8705796836    5.8449573907
   1.6526537995    4.2510597892    8.5283762059
   1.4260209330    0.5008718810    2.1306861406
  -3.3377248315    8.1973955254    4.8662714041
  -3.3200746921    7.2057819887    7.5098851846
   6.2459498327    3.8454108028    1.1026773707
   6.2406851637    2.6549085470    3.8875854175
   6.2406851637    1.5437638330    6.8236433773
