Structure 43 made from -211-8.xsd file  
   1.00000000000000     
     9.4251025535000004    3.5732980426999998    0.0000000000000000
     0.0000000000000000   10.0797329848999997    0.0000000000000000
     0.0000000000000000    0.0000000000000000   20.6835035552000015
   Ni   S 
    36    36
Direct
  0.3970588899999967  0.7949517910000026  0.1181622060000009
  0.5473274020000005  0.6446832789999988  0.2450992309999975
  0.6975959150000008  0.4944147659999985  0.3720362549999976
  0.8478644269999975  0.3441462540000018  0.4989732789999977
  0.1138150609999968  0.4115289539999978  0.1604745480000034
  0.2640835730000006  0.2612604409999975  0.2874115720000034
  0.4143520860000010  0.1109919290000008  0.4143485960000035
  0.9635465479999965  0.5617974660000016  0.0335375229999997
  0.1311082559999974  0.7275690909999994  0.4566609379999989
  0.6803027189999966  0.1783746280000003  0.0758498650000021
  0.8305712319999969  0.0281061159999965  0.2027868890000022
  0.9808397440000007  0.8778376039999998  0.3297239139999988
  0.3573570470000007  0.5704476339999971  0.0846246830000013
  0.5076255600000010  0.4201791209999968  0.2115617070000013
  0.6578940719999977  0.2699106090000001  0.3384987319999979
  0.8081625849999980  0.1196420959999998  0.4654357559999980
  0.0741132180000008  0.1870247960000029  0.1269370240000001
  0.2243817310000011  0.0367562839999991  0.2538740489999967
  0.3746502429999978  0.8864877709999988  0.3808110729999967
  0.5249187550000016  0.7362192590000021  0.5077480969999968
  0.9238447059999970  0.3372933079999996  0.0000000000000000
  0.0914064139999979  0.5030649340000011  0.4231234140000026
  0.6406008769999971  0.9538704710000019  0.0423123409999988
  0.7908693890000009  0.8036019589999981  0.1692493660000025
  0.9411379009999976  0.6533334459999978  0.2961863900000026
  0.0326667420000035  0.1593439390000029  0.4318982320000018
  0.5818612050000027  0.6101494759999966  0.0510871589999979
  0.7321297169999994  0.4598809639999999  0.1780241840000016
  0.8823982299999997  0.3096124509999996  0.3049612080000017
  0.2986173760000028  0.2267266389999989  0.0933995010000004
  0.4488858879999995  0.0764581259999986  0.2203365250000004
  0.5991544000000033  0.9261896140000019  0.3472735499999970
  0.0153735459999993  0.8433038009999976  0.1357118419999992
  0.1656420589999996  0.6930352890000009  0.2626488670000029
  0.3159105710000034  0.5427667760000006  0.3895858910000030
  0.4661790839999966  0.3924982639999968  0.5165229150000030
  0.0366048289999981  0.9551938520000007  0.4892828219999998
  0.5857992919999973  0.4059993890000015  0.1084717490000031
  0.7360678040000010  0.2557308769999977  0.2354087739999997
  0.8863363159999977  0.1054623650000011  0.3623457979999998
  0.1522869499999970  0.1728450640000005  0.0238470660000019
  0.3025554620000008  0.0225765519999968  0.1507840909999985
  0.4528239750000012  0.8723080400000001  0.2777211149999985
  0.6030924869999978  0.7220395269999997  0.4046581389999986
  0.0193116330000009  0.6391537140000025  0.1930964319999973
  0.1695801460000013  0.4888852019999987  0.3200334559999973
  0.3198486579999980  0.3386166900000021  0.4469704810000010
  0.8690431209999971  0.7894222270000029  0.0661594079999972
  0.4860856150000004  0.8421430659999984  0.0242401479999970
  0.6363541269999970  0.6918745540000018  0.1511771719999970
  0.7866226399999974  0.5416060410000014  0.2781141970000007
  0.9368911520000012  0.3913375289999976  0.4050512210000008
  0.2028417860000005  0.4587202290000008  0.0665524890000029
  0.3531102979999972  0.3084517160000004  0.1934895139999995
  0.5033788100000010  0.1581832039999966  0.3204265379999995
  0.6536473230000013  0.0079146910000034  0.4473635619999996
  0.0698664689999973  0.9250288790000027  0.2358018549999983
  0.2201349810000011  0.7747603660000024  0.3627388800000020
  0.3704034940000014  0.6244918539999986  0.4896759040000020
  0.9195979559999969  0.0752973909999994  0.1088648309999982
  0.2002104500000002  0.7915882309999986  0.0669455709999980
  0.3504789630000005  0.6413197179999983  0.1938825949999980
  0.5007474749999972  0.4910512060000016  0.3208196200000017
  0.6510159879999975  0.3407826930000013  0.4477566440000018
  0.0672351340000006  0.2578968810000006  0.2361949370000005
  0.2175036459999973  0.1076283680000003  0.3631319610000006
  0.3677721580000011  0.9573598559999965  0.4900689859999972
  0.9169666210000003  0.4081653929999973  0.1092579130000004
  0.4834542799999966  0.1750110680000034  0.0246332299999992
  0.6337227920000004  0.0247425559999996  0.1515702539999992
  0.7839913039999971  0.8744740429999993  0.2785072779999993
  0.9342598169999974  0.7242055310000026  0.4054443030000030
 
  0.00000000E+00  0.00000000E+00  0.00000000E+00
  0.00000000E+00  0.00000000E+00  0.00000000E+00
  0.00000000E+00  0.00000000E+00  0.00000000E+00
  0.00000000E+00  0.00000000E+00  0.00000000E+00
  0.00000000E+00  0.00000000E+00  0.00000000E+00
  0.00000000E+00  0.00000000E+00  0.00000000E+00
  0.00000000E+00  0.00000000E+00  0.00000000E+00
  0.00000000E+00  0.00000000E+00  0.00000000E+00
  0.00000000E+00  0.00000000E+00  0.00000000E+00
  0.00000000E+00  0.00000000E+00  0.00000000E+00
  0.00000000E+00  0.00000000E+00  0.00000000E+00
  0.00000000E+00  0.00000000E+00  0.00000000E+00
  0.00000000E+00  0.00000000E+00  0.00000000E+00
  0.00000000E+00  0.00000000E+00  0.00000000E+00
  0.00000000E+00  0.00000000E+00  0.00000000E+00
  0.00000000E+00  0.00000000E+00  0.00000000E+00
  0.00000000E+00  0.00000000E+00  0.00000000E+00
  0.00000000E+00  0.00000000E+00  0.00000000E+00
  0.00000000E+00  0.00000000E+00  0.00000000E+00
  0.00000000E+00  0.00000000E+00  0.00000000E+00
  0.00000000E+00  0.00000000E+00  0.00000000E+00
  0.00000000E+00  0.00000000E+00  0.00000000E+00
  0.00000000E+00  0.00000000E+00  0.00000000E+00
  0.00000000E+00  0.00000000E+00  0.00000000E+00
  0.00000000E+00  0.00000000E+00  0.00000000E+00
  0.00000000E+00  0.00000000E+00  0.00000000E+00
  0.00000000E+00  0.00000000E+00  0.00000000E+00
  0.00000000E+00  0.00000000E+00  0.00000000E+00
  0.00000000E+00  0.00000000E+00  0.00000000E+00
  0.00000000E+00  0.00000000E+00  0.00000000E+00
  0.00000000E+00  0.00000000E+00  0.00000000E+00
  0.00000000E+00  0.00000000E+00  0.00000000E+00
  0.00000000E+00  0.00000000E+00  0.00000000E+00
  0.00000000E+00  0.00000000E+00  0.00000000E+00
  0.00000000E+00  0.00000000E+00  0.00000000E+00
  0.00000000E+00  0.00000000E+00  0.00000000E+00
  0.00000000E+00  0.00000000E+00  0.00000000E+00
  0.00000000E+00  0.00000000E+00  0.00000000E+00
  0.00000000E+00  0.00000000E+00  0.00000000E+00
  0.00000000E+00  0.00000000E+00  0.00000000E+00
  0.00000000E+00  0.00000000E+00  0.00000000E+00
  0.00000000E+00  0.00000000E+00  0.00000000E+00
  0.00000000E+00  0.00000000E+00  0.00000000E+00
  0.00000000E+00  0.00000000E+00  0.00000000E+00
  0.00000000E+00  0.00000000E+00  0.00000000E+00
  0.00000000E+00  0.00000000E+00  0.00000000E+00
  0.00000000E+00  0.00000000E+00  0.00000000E+00
  0.00000000E+00  0.00000000E+00  0.00000000E+00
  0.00000000E+00  0.00000000E+00  0.00000000E+00
  0.00000000E+00  0.00000000E+00  0.00000000E+00
  0.00000000E+00  0.00000000E+00  0.00000000E+00
  0.00000000E+00  0.00000000E+00  0.00000000E+00
  0.00000000E+00  0.00000000E+00  0.00000000E+00
  0.00000000E+00  0.00000000E+00  0.00000000E+00
  0.00000000E+00  0.00000000E+00  0.00000000E+00
  0.00000000E+00  0.00000000E+00  0.00000000E+00
  0.00000000E+00  0.00000000E+00  0.00000000E+00
  0.00000000E+00  0.00000000E+00  0.00000000E+00
  0.00000000E+00  0.00000000E+00  0.00000000E+00
  0.00000000E+00  0.00000000E+00  0.00000000E+00
  0.00000000E+00  0.00000000E+00  0.00000000E+00
  0.00000000E+00  0.00000000E+00  0.00000000E+00
  0.00000000E+00  0.00000000E+00  0.00000000E+00
  0.00000000E+00  0.00000000E+00  0.00000000E+00
  0.00000000E+00  0.00000000E+00  0.00000000E+00
  0.00000000E+00  0.00000000E+00  0.00000000E+00
  0.00000000E+00  0.00000000E+00  0.00000000E+00
  0.00000000E+00  0.00000000E+00  0.00000000E+00
  0.00000000E+00  0.00000000E+00  0.00000000E+00
  0.00000000E+00  0.00000000E+00  0.00000000E+00
  0.00000000E+00  0.00000000E+00  0.00000000E+00
  0.00000000E+00  0.00000000E+00  0.00000000E+00
