Structure 7 made from 012-2.xsd file    
   1.00000000000000     
     9.5784099999999999    0.0000000000000000    0.0000000000000000
     0.0000000000000000   11.2564630381999997    0.0000000000000000
     0.0000000000000000    0.0000000000000000   17.7113588996999987
   Ni   S 
    30    30
Direct
  0.0807671809999988  0.4311970540000019  0.0230065610000025
  0.0807671809999988  0.3793451199999964  0.1971627949999970
  0.0807671809999988  0.3274931859999981  0.3713190280000020
  0.5807671809999988  0.1552710950000034  0.1100846779999998
  0.5807671809999988  0.1034191600000014  0.2842409120000013
  0.2128701809999995  0.2398923559999986  0.0000000000000000
  0.2128701809999995  0.1880404220000003  0.1741562340000016
  0.2128701809999995  0.1361884880000019  0.3483124669999995
  0.7128701809999995  0.4639663820000024  0.0870781169999972
  0.7128701809999995  0.4121144470000004  0.2612343509999988
  0.3449731810000003  0.4311970540000019  0.0230065610000025
  0.3449731810000003  0.3793451199999964  0.1971627949999970
  0.8449731810000003  0.1552710950000034  0.1100846779999998
  0.8449731810000003  0.1034191600000014  0.2842409120000013
  0.0807671809999988  0.9311970540000019  0.0230065610000025
  0.0807671809999988  0.8793451199999964  0.1971627949999970
  0.0807671809999988  0.8274931859999981  0.3713190280000020
  0.5807671809999988  0.6552710950000034  0.1100846779999998
  0.5807671809999988  0.6034191600000014  0.2842409120000013
  0.2128701809999995  0.7398923559999986  0.0000000000000000
  0.2128701809999995  0.6880404220000003  0.1741562340000016
  0.2128701809999995  0.6361884880000019  0.3483124669999995
  0.7128701809999995  0.9639663820000024  0.0870781169999972
  0.7128701809999995  0.9121144470000004  0.2612343509999988
  0.7128701809999995  0.8602625130000021  0.4353905839999967
  0.3449731810000003  0.9311970540000019  0.0230065610000025
  0.3449731810000003  0.8793451199999964  0.1971627949999970
  0.3449731810000003  0.8274931859999981  0.3713190280000020
  0.8449731810000003  0.6552710950000034  0.1100846779999998
  0.8449731810000003  0.6034191600000014  0.2842409120000013
  0.3810851810000031  0.2590430209999965  0.0968817779999966
  0.3810851810000031  0.2071910869999982  0.2710380110000017
  0.8810851810000031  0.4831170470000004  0.1839598939999973
  0.8810851810000031  0.4312651130000020  0.3581161279999989
  0.8810851810000031  0.0349689960000035  0.0098036609999994
  0.2128701809999995  0.4507913059999993  0.3003337020000032
  0.2128701809999995  0.0026432559999989  0.1261774680000016
  0.7128701809999995  0.2785692149999974  0.0390993520000009
  0.7128701809999995  0.2267172809999991  0.2132555849999989
  0.7128701809999995  0.1748653470000008  0.3874118190000004
  0.0446551810000031  0.2590430209999965  0.0968817779999966
  0.0446551810000031  0.2071910869999982  0.2710380110000017
  0.5446551810000031  0.4831170470000004  0.1839598939999973
  0.5446551810000031  0.4312651130000020  0.3581161279999989
  0.5446551810000031  0.0349689960000035  0.0098036609999994
  0.3810851810000031  0.7590430209999965  0.0968817779999966
  0.3810851810000031  0.7071910869999982  0.2710380110000017
  0.8810851810000031  0.9831170470000004  0.1839598939999973
  0.8810851810000031  0.9312651130000020  0.3581161279999989
  0.8810851810000031  0.5349689960000035  0.0098036609999994
  0.2128701809999995  0.9507913059999993  0.3003337020000032
  0.2128701809999995  0.5026432559999989  0.1261774680000016
  0.7128701809999995  0.7785692149999974  0.0390993520000009
  0.7128701809999995  0.7267172809999991  0.2132555849999989
  0.7128701809999995  0.6748653470000008  0.3874118190000004
  0.0446551810000031  0.7590430209999965  0.0968817779999966
  0.0446551810000031  0.7071910869999982  0.2710380110000017
  0.5446551810000031  0.9831170470000004  0.1839598939999973
  0.5446551810000031  0.9312651130000020  0.3581161279999989
  0.5446551810000031  0.5349689960000035  0.0098036609999994
 
  0.00000000E+00  0.00000000E+00  0.00000000E+00
  0.00000000E+00  0.00000000E+00  0.00000000E+00
  0.00000000E+00  0.00000000E+00  0.00000000E+00
  0.00000000E+00  0.00000000E+00  0.00000000E+00
  0.00000000E+00  0.00000000E+00  0.00000000E+00
  0.00000000E+00  0.00000000E+00  0.00000000E+00
  0.00000000E+00  0.00000000E+00  0.00000000E+00
  0.00000000E+00  0.00000000E+00  0.00000000E+00
  0.00000000E+00  0.00000000E+00  0.00000000E+00
  0.00000000E+00  0.00000000E+00  0.00000000E+00
  0.00000000E+00  0.00000000E+00  0.00000000E+00
  0.00000000E+00  0.00000000E+00  0.00000000E+00
  0.00000000E+00  0.00000000E+00  0.00000000E+00
  0.00000000E+00  0.00000000E+00  0.00000000E+00
  0.00000000E+00  0.00000000E+00  0.00000000E+00
  0.00000000E+00  0.00000000E+00  0.00000000E+00
  0.00000000E+00  0.00000000E+00  0.00000000E+00
  0.00000000E+00  0.00000000E+00  0.00000000E+00
  0.00000000E+00  0.00000000E+00  0.00000000E+00
  0.00000000E+00  0.00000000E+00  0.00000000E+00
  0.00000000E+00  0.00000000E+00  0.00000000E+00
  0.00000000E+00  0.00000000E+00  0.00000000E+00
  0.00000000E+00  0.00000000E+00  0.00000000E+00
  0.00000000E+00  0.00000000E+00  0.00000000E+00
  0.00000000E+00  0.00000000E+00  0.00000000E+00
  0.00000000E+00  0.00000000E+00  0.00000000E+00
  0.00000000E+00  0.00000000E+00  0.00000000E+00
  0.00000000E+00  0.00000000E+00  0.00000000E+00
  0.00000000E+00  0.00000000E+00  0.00000000E+00
  0.00000000E+00  0.00000000E+00  0.00000000E+00
  0.00000000E+00  0.00000000E+00  0.00000000E+00
  0.00000000E+00  0.00000000E+00  0.00000000E+00
  0.00000000E+00  0.00000000E+00  0.00000000E+00
  0.00000000E+00  0.00000000E+00  0.00000000E+00
  0.00000000E+00  0.00000000E+00  0.00000000E+00
  0.00000000E+00  0.00000000E+00  0.00000000E+00
  0.00000000E+00  0.00000000E+00  0.00000000E+00
  0.00000000E+00  0.00000000E+00  0.00000000E+00
  0.00000000E+00  0.00000000E+00  0.00000000E+00
  0.00000000E+00  0.00000000E+00  0.00000000E+00
  0.00000000E+00  0.00000000E+00  0.00000000E+00
  0.00000000E+00  0.00000000E+00  0.00000000E+00
  0.00000000E+00  0.00000000E+00  0.00000000E+00
  0.00000000E+00  0.00000000E+00  0.00000000E+00
  0.00000000E+00  0.00000000E+00  0.00000000E+00
  0.00000000E+00  0.00000000E+00  0.00000000E+00
  0.00000000E+00  0.00000000E+00  0.00000000E+00
  0.00000000E+00  0.00000000E+00  0.00000000E+00
  0.00000000E+00  0.00000000E+00  0.00000000E+00
  0.00000000E+00  0.00000000E+00  0.00000000E+00
  0.00000000E+00  0.00000000E+00  0.00000000E+00
  0.00000000E+00  0.00000000E+00  0.00000000E+00
  0.00000000E+00  0.00000000E+00  0.00000000E+00
  0.00000000E+00  0.00000000E+00  0.00000000E+00
  0.00000000E+00  0.00000000E+00  0.00000000E+00
  0.00000000E+00  0.00000000E+00  0.00000000E+00
  0.00000000E+00  0.00000000E+00  0.00000000E+00
  0.00000000E+00  0.00000000E+00  0.00000000E+00
  0.00000000E+00  0.00000000E+00  0.00000000E+00
  0.00000000E+00  0.00000000E+00  0.00000000E+00
