Structure 1 made from 021-1.xsd file    
   1.00000000000000     
    11.2351097479999993    3.6905792347999999    0.0000000000000000
     0.0000000000000000   11.8257374458999998    0.0000000000000000
     0.0000000000000000    0.0000000000000000   16.6389692597000014
   Ni   S 
    36    36
Direct
  0.4240882080000006  0.1938175499999986  0.0794926530000026
  0.0606737299999978  0.0572320429999991  0.2299295349999966
  0.1972592380000009  0.4206465210000019  0.3803664160000011
  0.1161207939999969  0.1338879750000004  0.0000000000000000
  0.2527063020000000  0.4973024530000032  0.1504368820000010
  0.3892918089999995  0.3607169459999966  0.3008737629999985
  0.0561912189999987  0.3259205459999990  0.0794926530000026
  0.1927767270000018  0.1893350389999995  0.2299295349999966
  0.3293622340000013  0.0527495320000000  0.3803664160000011
  0.9240882080000006  0.1938175499999986  0.0794926530000026
  0.5606737299999978  0.0572320429999991  0.2299295349999966
  0.6972592380000009  0.4206465210000019  0.3803664160000011
  0.6161207939999969  0.1338879750000004  0.0000000000000000
  0.7527063020000000  0.4973024530000032  0.1504368820000010
  0.8892918089999995  0.3607169459999966  0.3008737629999985
  0.5561912189999987  0.3259205459999990  0.0794926530000026
  0.6927767270000018  0.1893350389999995  0.2299295349999966
  0.8293622340000013  0.0527495320000000  0.3803664160000011
  0.4240882080000006  0.6938175499999986  0.0794926530000026
  0.0606737299999978  0.5572320429999991  0.2299295349999966
  0.1972592380000009  0.9206465210000019  0.3803664160000011
  0.1161207939999969  0.6338879750000004  0.0000000000000000
  0.2527063020000000  0.9973024530000032  0.1504368820000010
  0.3892918089999995  0.8607169459999966  0.3008737629999985
  0.0561912189999987  0.8259205459999990  0.0794926530000026
  0.1927767270000018  0.6893350389999995  0.2299295349999966
  0.3293622340000013  0.5527495320000000  0.3803664160000011
  0.9240882080000006  0.6938175499999986  0.0794926530000026
  0.5606737299999978  0.5572320429999991  0.2299295349999966
  0.6972592380000009  0.9206465210000019  0.3803664160000011
  0.6161207939999969  0.6338879750000004  0.0000000000000000
  0.7527063020000000  0.9973024530000032  0.1504368820000010
  0.8892918089999995  0.8607169459999966  0.3008737629999985
  0.5561912189999987  0.8259205459999990  0.0794926530000026
  0.6927767270000018  0.6893350389999995  0.2299295349999966
  0.8293622340000013  0.5527495320000000  0.3803664160000011
  0.0144962729999989  0.4037274920000016  0.3990012339999964
  0.2413252429999986  0.1768985209999983  0.0981274709999980
  0.3779107499999981  0.0403130139999988  0.2485643520000025
  0.3602126549999980  0.3897960990000016  0.0489135489999981
  0.4967981630000011  0.2532105920000021  0.1993504309999992
  0.1333836849999983  0.1166250839999989  0.3497873119999966
  0.0731102479999990  0.0086835259999987  0.0981274709999980
  0.2096957549999985  0.3720980040000015  0.2485643520000025
  0.3462812630000016  0.2355124970000020  0.3990012339999964
  0.5144962729999989  0.4037274920000016  0.3990012339999964
  0.7413252429999986  0.1768985209999983  0.0981274709999980
  0.8779107499999981  0.0403130139999988  0.2485643520000025
  0.8602126549999980  0.3897960990000016  0.0489135489999981
  0.9967981630000011  0.2532105920000021  0.1993504309999992
  0.6333836849999983  0.1166250839999989  0.3497873119999966
  0.5731102479999990  0.0086835259999987  0.0981274709999980
  0.7096957549999985  0.3720980040000015  0.2485643520000025
  0.8462812630000016  0.2355124970000020  0.3990012339999964
  0.0144962729999989  0.9037274920000016  0.3990012339999964
  0.2413252429999986  0.6768985209999983  0.0981274709999980
  0.3779107499999981  0.5403130139999988  0.2485643520000025
  0.3602126549999980  0.8897960990000016  0.0489135489999981
  0.4967981630000011  0.7532105920000021  0.1993504309999992
  0.1333836849999983  0.6166250839999989  0.3497873119999966
  0.0731102479999990  0.5086835259999987  0.0981274709999980
  0.2096957549999985  0.8720980040000015  0.2485643520000025
  0.3462812630000016  0.7355124970000020  0.3990012339999964
  0.5144962729999989  0.9037274920000016  0.3990012339999964
  0.7413252429999986  0.6768985209999983  0.0981274709999980
  0.8779107499999981  0.5403130139999988  0.2485643520000025
  0.8602126549999980  0.8897960990000016  0.0489135489999981
  0.9967981630000011  0.7532105920000021  0.1993504309999992
  0.6333836849999983  0.6166250839999989  0.3497873119999966
  0.5731102479999990  0.5086835259999987  0.0981274709999980
  0.7096957549999985  0.8720980040000015  0.2485643520000025
  0.8462812630000016  0.7355124970000020  0.3990012339999964
 
  0.00000000E+00  0.00000000E+00  0.00000000E+00
  0.00000000E+00  0.00000000E+00  0.00000000E+00
  0.00000000E+00  0.00000000E+00  0.00000000E+00
  0.00000000E+00  0.00000000E+00  0.00000000E+00
  0.00000000E+00  0.00000000E+00  0.00000000E+00
  0.00000000E+00  0.00000000E+00  0.00000000E+00
  0.00000000E+00  0.00000000E+00  0.00000000E+00
  0.00000000E+00  0.00000000E+00  0.00000000E+00
  0.00000000E+00  0.00000000E+00  0.00000000E+00
  0.00000000E+00  0.00000000E+00  0.00000000E+00
  0.00000000E+00  0.00000000E+00  0.00000000E+00
  0.00000000E+00  0.00000000E+00  0.00000000E+00
  0.00000000E+00  0.00000000E+00  0.00000000E+00
  0.00000000E+00  0.00000000E+00  0.00000000E+00
  0.00000000E+00  0.00000000E+00  0.00000000E+00
  0.00000000E+00  0.00000000E+00  0.00000000E+00
  0.00000000E+00  0.00000000E+00  0.00000000E+00
  0.00000000E+00  0.00000000E+00  0.00000000E+00
  0.00000000E+00  0.00000000E+00  0.00000000E+00
  0.00000000E+00  0.00000000E+00  0.00000000E+00
  0.00000000E+00  0.00000000E+00  0.00000000E+00
  0.00000000E+00  0.00000000E+00  0.00000000E+00
  0.00000000E+00  0.00000000E+00  0.00000000E+00
  0.00000000E+00  0.00000000E+00  0.00000000E+00
  0.00000000E+00  0.00000000E+00  0.00000000E+00
  0.00000000E+00  0.00000000E+00  0.00000000E+00
  0.00000000E+00  0.00000000E+00  0.00000000E+00
  0.00000000E+00  0.00000000E+00  0.00000000E+00
  0.00000000E+00  0.00000000E+00  0.00000000E+00
  0.00000000E+00  0.00000000E+00  0.00000000E+00
  0.00000000E+00  0.00000000E+00  0.00000000E+00
  0.00000000E+00  0.00000000E+00  0.00000000E+00
  0.00000000E+00  0.00000000E+00  0.00000000E+00
  0.00000000E+00  0.00000000E+00  0.00000000E+00
  0.00000000E+00  0.00000000E+00  0.00000000E+00
  0.00000000E+00  0.00000000E+00  0.00000000E+00
  0.00000000E+00  0.00000000E+00  0.00000000E+00
  0.00000000E+00  0.00000000E+00  0.00000000E+00
  0.00000000E+00  0.00000000E+00  0.00000000E+00
  0.00000000E+00  0.00000000E+00  0.00000000E+00
  0.00000000E+00  0.00000000E+00  0.00000000E+00
  0.00000000E+00  0.00000000E+00  0.00000000E+00
  0.00000000E+00  0.00000000E+00  0.00000000E+00
  0.00000000E+00  0.00000000E+00  0.00000000E+00
  0.00000000E+00  0.00000000E+00  0.00000000E+00
  0.00000000E+00  0.00000000E+00  0.00000000E+00
  0.00000000E+00  0.00000000E+00  0.00000000E+00
  0.00000000E+00  0.00000000E+00  0.00000000E+00
  0.00000000E+00  0.00000000E+00  0.00000000E+00
  0.00000000E+00  0.00000000E+00  0.00000000E+00
  0.00000000E+00  0.00000000E+00  0.00000000E+00
  0.00000000E+00  0.00000000E+00  0.00000000E+00
  0.00000000E+00  0.00000000E+00  0.00000000E+00
  0.00000000E+00  0.00000000E+00  0.00000000E+00
  0.00000000E+00  0.00000000E+00  0.00000000E+00
  0.00000000E+00  0.00000000E+00  0.00000000E+00
  0.00000000E+00  0.00000000E+00  0.00000000E+00
  0.00000000E+00  0.00000000E+00  0.00000000E+00
  0.00000000E+00  0.00000000E+00  0.00000000E+00
  0.00000000E+00  0.00000000E+00  0.00000000E+00
  0.00000000E+00  0.00000000E+00  0.00000000E+00
  0.00000000E+00  0.00000000E+00  0.00000000E+00
  0.00000000E+00  0.00000000E+00  0.00000000E+00
  0.00000000E+00  0.00000000E+00  0.00000000E+00
  0.00000000E+00  0.00000000E+00  0.00000000E+00
  0.00000000E+00  0.00000000E+00  0.00000000E+00
  0.00000000E+00  0.00000000E+00  0.00000000E+00
  0.00000000E+00  0.00000000E+00  0.00000000E+00
  0.00000000E+00  0.00000000E+00  0.00000000E+00
  0.00000000E+00  0.00000000E+00  0.00000000E+00
  0.00000000E+00  0.00000000E+00  0.00000000E+00
  0.00000000E+00  0.00000000E+00  0.00000000E+00
