Type_036 Type_136                       
   1.00000000000000     
    10.0797329848999997    0.0000000000000000    0.0000000000000000
     3.5732980426999998    9.4251025535000004    0.0000000000000000
     0.0000000000000000    0.0000000000000000   20.5101398818000007
   Ty   Ty
    36    36
Direct
  0.3378066918857030  0.7218727686176152  0.1572175502060489
  0.5246006629991058  0.6010936830067877  0.2231223169989605
  0.6748691759937060  0.4508251710027409  0.3511322870006666
  0.7855266231713358  0.3291080760546308  0.4622561195944357
  0.5531053057574269  0.1177320998154983  0.0679159126816131
  0.7577549890003752  0.0346060250006417  0.1377823369994502
  0.0582920129980309  0.7340690000058174  0.3938022769979810
  0.9080235009991213  0.8843375130072033  0.2657923070011563
  0.1411778259947809  0.3178498540037111  0.1804523270016389
  0.2914463379972858  0.1675813419996643  0.3084622969984707
  0.4228794300051320  0.0331318779533092  0.4227548700871679
  0.9557463000045985  0.4847897166278798  0.1207417110985887
  0.0099400030046297  0.1157543439986100  0.4115002529987279
  0.5533004763878253  0.6631345577326400  0.0934246928613263
  0.7094029779912745  0.4162913690040426  0.1554803120006838
  0.8596714909921985  0.2660228560026567  0.2834902830018962
  0.0928258159976139  0.6995351980071192  0.1981503019980053
  0.2430943279965305  0.5492666850057333  0.3261602729992177
  0.3491459243412081  0.4158246633554796  0.4223639941133257
  0.9425573029968604  0.8498037100005575  0.0701403320011735
  0.3259801409932734  0.1330475390036270  0.1128103219984951
  0.4762486529957854  0.9827790269995802  0.2408202920002012
  0.6265171659965389  0.8325105150061418  0.3688302630014064
  0.7605361721945130  0.7037297414803163  0.4583479735621836
  0.0400758912967873  0.3432301241431759  0.4347686968635855
  0.6693619252014074  0.8466952780197161  0.1061972974807830
  0.7491048209982267  0.6407955260027620  0.1893013150020124
  0.8993733330007316  0.4905270139987152  0.3173112849988442
  0.9822591459974817  0.0743078679966089  0.1039613339981216
  0.1325276580025516  0.9240393550058386  0.2319713049993339
  0.2827961709971518  0.7737708430017847  0.3599812750010400
  0.4889550357107382  0.7110925924313847  0.4278302286805200
  0.1513870739086158  0.3883682507455291  0.0489686770976760
  0.3656819830018065  0.3575516969996855  0.1466313240003174
  0.5159504960027306  0.2072831839982996  0.2746412950015227
  0.6616501047957399  0.0667224896100933  0.3890861993282329
  0.0638215769989046  0.2620847689962460  0.3413599199980482
  0.2063271554159058  0.1339843167999319  0.4399886902676755
  0.7632845529974901  0.5626217940016787  0.0853399799995103
  0.9135530649999950  0.4123532819976319  0.2133499500012164
  0.1467073900018150  0.8458656230047552  0.1280099700017061
  0.2969759029964152  0.6955971110007084  0.2560199399985379
  0.4472444149951542  0.5453285990072700  0.3840299100002440
  0.0063490162618152  0.9822945070408764  0.0167029134162036
  0.3662238967818823  0.2847160667236963  0.0514055187324942
  0.5301302279919042  0.1291094530051708  0.1706799599990205
  0.6803987400007401  0.9788409400037850  0.2986899300007266
  0.8224761604331903  0.8493991660416569  0.4084471974534765
  0.4679491900474559  0.9586304621634909  0.0613862799793594
  0.5279642239970954  0.7979421230071608  0.1714727689995357
  0.6782327359996003  0.6476736110031140  0.2994827390012418
  0.8285012490005244  0.4974050980017282  0.4274927089980665
  0.7734913058458659  0.2238852215158573  0.1033204010168873
  0.9113870609952599  0.0811859519996290  0.2141427590017244
  0.0616555739960205  0.9309174400061906  0.3421527289985562
  0.2275089772232732  0.7375012330150952  0.4501531057763657
  0.1445413860006752  0.5146982940040843  0.1288027790022142
  0.2948098990015993  0.3644297810026984  0.2568127489990459
  0.4450784109941850  0.2141612689986516  0.3848227190007520
  0.9995265513732505  0.6015227009487205  0.0386393421433127
  0.4774093879924948  0.5120669590070150  0.1284063740022106
  0.6276779009934188  0.3617984460056292  0.2564163449985415
  0.7779464129959237  0.2115299340015824  0.3844263150002476
  0.9749053638588379  0.2189243491609290  0.5002146115836084
  0.0111007380015096  0.6450422749980973  0.2990863350007373
  0.1351007399308699  0.5076036256309351  0.4107668567914544
  0.7421731653288859  0.9638737884636015  0.0398879424720988
  0.8608322259926737  0.7953107879994832  0.1710763639995250
  0.0957361523646227  0.2285307974606781  0.0947162835795083
  0.2442550629970057  0.0785546170025526  0.2137463540017208
  0.3945235759977592  0.9282861050091142  0.3417563249980518
  0.5629644667297882  0.8548857210267613  0.4696999002258622
 
  0.00000000E+00  0.00000000E+00  0.00000000E+00
  0.00000000E+00  0.00000000E+00  0.00000000E+00
  0.00000000E+00  0.00000000E+00  0.00000000E+00
  0.00000000E+00  0.00000000E+00  0.00000000E+00
  0.00000000E+00  0.00000000E+00  0.00000000E+00
  0.00000000E+00  0.00000000E+00  0.00000000E+00
  0.00000000E+00  0.00000000E+00  0.00000000E+00
  0.00000000E+00  0.00000000E+00  0.00000000E+00
  0.00000000E+00  0.00000000E+00  0.00000000E+00
  0.00000000E+00  0.00000000E+00  0.00000000E+00
  0.00000000E+00  0.00000000E+00  0.00000000E+00
  0.00000000E+00  0.00000000E+00  0.00000000E+00
  0.00000000E+00  0.00000000E+00  0.00000000E+00
  0.00000000E+00  0.00000000E+00  0.00000000E+00
  0.00000000E+00  0.00000000E+00  0.00000000E+00
  0.00000000E+00  0.00000000E+00  0.00000000E+00
  0.00000000E+00  0.00000000E+00  0.00000000E+00
  0.00000000E+00  0.00000000E+00  0.00000000E+00
  0.00000000E+00  0.00000000E+00  0.00000000E+00
  0.00000000E+00  0.00000000E+00  0.00000000E+00
  0.00000000E+00  0.00000000E+00  0.00000000E+00
  0.00000000E+00  0.00000000E+00  0.00000000E+00
  0.00000000E+00  0.00000000E+00  0.00000000E+00
  0.00000000E+00  0.00000000E+00  0.00000000E+00
  0.00000000E+00  0.00000000E+00  0.00000000E+00
  0.00000000E+00  0.00000000E+00  0.00000000E+00
  0.00000000E+00  0.00000000E+00  0.00000000E+00
  0.00000000E+00  0.00000000E+00  0.00000000E+00
  0.00000000E+00  0.00000000E+00  0.00000000E+00
  0.00000000E+00  0.00000000E+00  0.00000000E+00
  0.00000000E+00  0.00000000E+00  0.00000000E+00
  0.00000000E+00  0.00000000E+00  0.00000000E+00
  0.00000000E+00  0.00000000E+00  0.00000000E+00
  0.00000000E+00  0.00000000E+00  0.00000000E+00
  0.00000000E+00  0.00000000E+00  0.00000000E+00
  0.00000000E+00  0.00000000E+00  0.00000000E+00
  0.00000000E+00  0.00000000E+00  0.00000000E+00
  0.00000000E+00  0.00000000E+00  0.00000000E+00
  0.00000000E+00  0.00000000E+00  0.00000000E+00
  0.00000000E+00  0.00000000E+00  0.00000000E+00
  0.00000000E+00  0.00000000E+00  0.00000000E+00
  0.00000000E+00  0.00000000E+00  0.00000000E+00
  0.00000000E+00  0.00000000E+00  0.00000000E+00
  0.00000000E+00  0.00000000E+00  0.00000000E+00
  0.00000000E+00  0.00000000E+00  0.00000000E+00
  0.00000000E+00  0.00000000E+00  0.00000000E+00
  0.00000000E+00  0.00000000E+00  0.00000000E+00
  0.00000000E+00  0.00000000E+00  0.00000000E+00
  0.00000000E+00  0.00000000E+00  0.00000000E+00
  0.00000000E+00  0.00000000E+00  0.00000000E+00
  0.00000000E+00  0.00000000E+00  0.00000000E+00
  0.00000000E+00  0.00000000E+00  0.00000000E+00
  0.00000000E+00  0.00000000E+00  0.00000000E+00
  0.00000000E+00  0.00000000E+00  0.00000000E+00
  0.00000000E+00  0.00000000E+00  0.00000000E+00
  0.00000000E+00  0.00000000E+00  0.00000000E+00
  0.00000000E+00  0.00000000E+00  0.00000000E+00
  0.00000000E+00  0.00000000E+00  0.00000000E+00
  0.00000000E+00  0.00000000E+00  0.00000000E+00
  0.00000000E+00  0.00000000E+00  0.00000000E+00
  0.00000000E+00  0.00000000E+00  0.00000000E+00
  0.00000000E+00  0.00000000E+00  0.00000000E+00
  0.00000000E+00  0.00000000E+00  0.00000000E+00
  0.00000000E+00  0.00000000E+00  0.00000000E+00
  0.00000000E+00  0.00000000E+00  0.00000000E+00
  0.00000000E+00  0.00000000E+00  0.00000000E+00
  0.00000000E+00  0.00000000E+00  0.00000000E+00
  0.00000000E+00  0.00000000E+00  0.00000000E+00
  0.00000000E+00  0.00000000E+00  0.00000000E+00
  0.00000000E+00  0.00000000E+00  0.00000000E+00
  0.00000000E+00  0.00000000E+00  0.00000000E+00
  0.00000000E+00  0.00000000E+00  0.00000000E+00
