Structure 1 made from -121-3.xsd file   
   1.00000000000000     
     9.4251025535000004    3.5732980426999998    0.0000000000000000
     0.0000000000000000   10.0797329848999997    0.0000000000000000
     0.0000000000000000    0.0000000000000000   20.1902626727999994
   Ni   S 
    36    36
Direct
  0.3743321409999965  0.7513622060000031  0.0966192249999978
  0.5246006530000002  0.6010936939999993  0.2266572750000009
  0.6748691660000006  0.4508251809999990  0.3566953260000005
  0.8251376779999973  0.3005566690000023  0.4867333759999966
  0.6074864659999974  0.1848745480000034  0.0099271910000027
  0.7577549780000012  0.0346060350000030  0.1399652420000024
  0.0582920029999983  0.7340690099999989  0.4000413429999981
  0.9080234910000016  0.8843375229999992  0.2700032919999984
  0.1411778160000026  0.3178498640000029  0.1833112589999999
  0.2914463279999993  0.1675813519999991  0.3133493090000030
  0.4417148400000031  0.0173128400000024  0.4433873589999990
  0.9909093030000022  0.4681183770000032  0.0532732080000002
  0.0099399930000033  0.1157543540000034  0.4180197100000029
  0.5591344560000024  0.5665598909999972  0.0279055589999970
  0.7094029679999991  0.4162913790000005  0.1579436090000002
  0.8596714800000029  0.2660228660000001  0.2879816590000033
  0.0928258049999968  0.6995352080000004  0.2012896259999977
  0.2430943179999971  0.5492666959999966  0.3313276760000008
  0.3933628300000009  0.3989981830000033  0.4613657270000004
  0.9425572930000001  0.8498037199999970  0.0712515760000016
  0.3259801299999978  0.1330475500000006  0.1145975920000026
  0.4762486429999981  0.9827790370000002  0.2446356430000023
  0.6265171550000019  0.8325105250000036  0.3746736929999983
  0.7767856680000023  0.6822420120000032  0.5047117430000014
  0.0496418350000027  0.3402585110000018  0.4523765429999997
  0.5988362980000019  0.7910640489999992  0.0622623920000009
  0.7491048110000023  0.6407955359999988  0.1923004419999970
  0.8993733229999989  0.4905270240000021  0.3223384929999966
  0.9822591360000033  0.0743078779999991  0.1056084089999985
  0.1325276479999999  0.9240393649999987  0.2356464590000016
  0.2827961599999966  0.7737708530000020  0.3656845089999976
  0.4330646729999970  0.6235023409999982  0.4957225599999973
  0.2154134609999971  0.5078202190000027  0.0189163750000034
  0.3656819730000009  0.3575517069999989  0.1489544249999994
  0.5159504849999976  0.2072831950000023  0.2789924759999991
  0.6662189979999980  0.0570146820000019  0.4090305260000022
  0.0638215669999980  0.2620847800000021  0.3467681340000013
  0.2140900799999983  0.1118162670000018  0.4768061850000009
  0.7632845420000010  0.5626218049999991  0.0866920340000021
  0.9135530550000013  0.4123532919999988  0.2167300839999982
  0.1467073800000023  0.8458656339999990  0.1300380500000031
  0.2969758919999990  0.6955971209999987  0.2600761010000028
  0.4472444049999993  0.5453286090000020  0.3901141509999988
  0.9964388670000019  0.9961341460000028  0.0000000000000000
  0.3798617050000033  0.2793779750000027  0.0433460169999975
  0.5301302170000000  0.1291094629999989  0.1733840670000006
  0.6803987300000003  0.9788409499999986  0.3034221169999967
  0.8306672419999970  0.8285724380000019  0.4334601680000034
  0.3776957010000004  0.9482106459999997  0.0441513860000029
  0.5279642140000007  0.7979421329999994  0.1741894359999989
  0.6782327259999974  0.6476736210000027  0.3042274860000020
  0.8285012380000012  0.4974051080000024  0.4342655370000017
  0.7611185390000017  0.2314544749999996  0.0874974030000004
  0.9113870509999984  0.0811859619999993  0.2175354529999964
  0.0616555630000022  0.9309174500000026  0.3475735029999996
  0.2119240760000025  0.7806489379999988  0.4776115539999992
  0.1445413759999994  0.5146983039999995  0.1308434190000014
  0.2948098889999997  0.3644297920000028  0.2608814700000011
  0.4450784010000035  0.2141612790000025  0.3909195199999971
  0.9942728640000027  0.6649668160000033  0.0008053689999983
  0.3271408660000006  0.6623354809999995  0.0004026840000009
  0.4774093779999973  0.5120669690000028  0.1304407350000005
  0.6276778900000011  0.3617984560000025  0.2604787849999965
  0.7779464030000014  0.2115299439999987  0.3905168360000033
  0.0111007280000024  0.6450422859999989  0.3038248020000012
  0.1613692399999991  0.4947737729999986  0.4338628519999972
  0.7105637029999983  0.9455793099999994  0.0437487009999984
  0.8608322150000021  0.7953107980000027  0.1737867519999980
  0.0939865400000031  0.2288231400000029  0.0870947180000030
  0.2442550530000034  0.0785546270000026  0.2171327679999990
  0.3945235650000001  0.9282861149999988  0.3471708189999987
  0.5447920780000004  0.7780176019999985  0.4772088690000018
 
  0.00000000E+00  0.00000000E+00  0.00000000E+00
  0.00000000E+00  0.00000000E+00  0.00000000E+00
  0.00000000E+00  0.00000000E+00  0.00000000E+00
  0.00000000E+00  0.00000000E+00  0.00000000E+00
  0.00000000E+00  0.00000000E+00  0.00000000E+00
  0.00000000E+00  0.00000000E+00  0.00000000E+00
  0.00000000E+00  0.00000000E+00  0.00000000E+00
  0.00000000E+00  0.00000000E+00  0.00000000E+00
  0.00000000E+00  0.00000000E+00  0.00000000E+00
  0.00000000E+00  0.00000000E+00  0.00000000E+00
  0.00000000E+00  0.00000000E+00  0.00000000E+00
  0.00000000E+00  0.00000000E+00  0.00000000E+00
  0.00000000E+00  0.00000000E+00  0.00000000E+00
  0.00000000E+00  0.00000000E+00  0.00000000E+00
  0.00000000E+00  0.00000000E+00  0.00000000E+00
  0.00000000E+00  0.00000000E+00  0.00000000E+00
  0.00000000E+00  0.00000000E+00  0.00000000E+00
  0.00000000E+00  0.00000000E+00  0.00000000E+00
  0.00000000E+00  0.00000000E+00  0.00000000E+00
  0.00000000E+00  0.00000000E+00  0.00000000E+00
  0.00000000E+00  0.00000000E+00  0.00000000E+00
  0.00000000E+00  0.00000000E+00  0.00000000E+00
  0.00000000E+00  0.00000000E+00  0.00000000E+00
  0.00000000E+00  0.00000000E+00  0.00000000E+00
  0.00000000E+00  0.00000000E+00  0.00000000E+00
  0.00000000E+00  0.00000000E+00  0.00000000E+00
  0.00000000E+00  0.00000000E+00  0.00000000E+00
  0.00000000E+00  0.00000000E+00  0.00000000E+00
  0.00000000E+00  0.00000000E+00  0.00000000E+00
  0.00000000E+00  0.00000000E+00  0.00000000E+00
  0.00000000E+00  0.00000000E+00  0.00000000E+00
  0.00000000E+00  0.00000000E+00  0.00000000E+00
  0.00000000E+00  0.00000000E+00  0.00000000E+00
  0.00000000E+00  0.00000000E+00  0.00000000E+00
  0.00000000E+00  0.00000000E+00  0.00000000E+00
  0.00000000E+00  0.00000000E+00  0.00000000E+00
  0.00000000E+00  0.00000000E+00  0.00000000E+00
  0.00000000E+00  0.00000000E+00  0.00000000E+00
  0.00000000E+00  0.00000000E+00  0.00000000E+00
  0.00000000E+00  0.00000000E+00  0.00000000E+00
  0.00000000E+00  0.00000000E+00  0.00000000E+00
  0.00000000E+00  0.00000000E+00  0.00000000E+00
  0.00000000E+00  0.00000000E+00  0.00000000E+00
  0.00000000E+00  0.00000000E+00  0.00000000E+00
  0.00000000E+00  0.00000000E+00  0.00000000E+00
  0.00000000E+00  0.00000000E+00  0.00000000E+00
  0.00000000E+00  0.00000000E+00  0.00000000E+00
  0.00000000E+00  0.00000000E+00  0.00000000E+00
  0.00000000E+00  0.00000000E+00  0.00000000E+00
  0.00000000E+00  0.00000000E+00  0.00000000E+00
  0.00000000E+00  0.00000000E+00  0.00000000E+00
  0.00000000E+00  0.00000000E+00  0.00000000E+00
  0.00000000E+00  0.00000000E+00  0.00000000E+00
  0.00000000E+00  0.00000000E+00  0.00000000E+00
  0.00000000E+00  0.00000000E+00  0.00000000E+00
  0.00000000E+00  0.00000000E+00  0.00000000E+00
  0.00000000E+00  0.00000000E+00  0.00000000E+00
  0.00000000E+00  0.00000000E+00  0.00000000E+00
  0.00000000E+00  0.00000000E+00  0.00000000E+00
  0.00000000E+00  0.00000000E+00  0.00000000E+00
  0.00000000E+00  0.00000000E+00  0.00000000E+00
  0.00000000E+00  0.00000000E+00  0.00000000E+00
  0.00000000E+00  0.00000000E+00  0.00000000E+00
  0.00000000E+00  0.00000000E+00  0.00000000E+00
  0.00000000E+00  0.00000000E+00  0.00000000E+00
  0.00000000E+00  0.00000000E+00  0.00000000E+00
  0.00000000E+00  0.00000000E+00  0.00000000E+00
  0.00000000E+00  0.00000000E+00  0.00000000E+00
  0.00000000E+00  0.00000000E+00  0.00000000E+00
  0.00000000E+00  0.00000000E+00  0.00000000E+00
  0.00000000E+00  0.00000000E+00  0.00000000E+00
  0.00000000E+00  0.00000000E+00  0.00000000E+00
