Structure 1 made from -121-3.xsd file
1.0
        9.4251025535        3.5732980427        0.0000000000
        0.0000000000       10.0797329849        0.0000000000
        0.0000000000        0.0000000000       20.1902626728
   Ni    S
   36   36
Direct
     0.374332141     0.751362206     0.096619225
     0.524600653     0.601093694     0.226657275
     0.674869166     0.450825181     0.356695326
     0.825137678     0.300556669     0.486733376
     0.607486466     0.184874548     0.009927191
     0.757754978     0.034606035     0.139965242
     0.058292003     0.734069010     0.400041343
     0.908023491     0.884337523     0.270003292
     0.141177816     0.317849864     0.183311259
     0.291446328     0.167581352     0.313349309
     0.441714840     0.017312840     0.443387359
     0.990909303     0.468118377     0.053273208
     0.009939993     0.115754354     0.418019710
     0.559134456     0.566559891     0.027905559
     0.709402968     0.416291379     0.157943609
     0.859671480     0.266022866     0.287981659
     0.092825805     0.699535208     0.201289626
     0.243094318     0.549266696     0.331327676
     0.393362830     0.398998183     0.461365727
     0.942557293     0.849803720     0.071251576
     0.325980130     0.133047550     0.114597592
     0.476248643     0.982779037     0.244635643
     0.626517155     0.832510525     0.374673693
     0.776785668     0.682242012     0.504711743
     0.049641835     0.340258511     0.452376543
     0.598836298     0.791064049     0.062262392
     0.749104811     0.640795536     0.192300442
     0.899373323     0.490527024     0.322338493
     0.982259136     0.074307878     0.105608409
     0.132527648     0.924039365     0.235646459
     0.282796160     0.773770853     0.365684509
     0.433064673     0.623502341     0.495722560
     0.215413461     0.507820219     0.018916375
     0.365681973     0.357551707     0.148954425
     0.515950485     0.207283195     0.278992476
     0.666218998     0.057014682     0.409030526
     0.063821567     0.262084780     0.346768134
     0.214090080     0.111816267     0.476806185
     0.763284542     0.562621805     0.086692034
     0.913553055     0.412353292     0.216730084
     0.146707380     0.845865634     0.130038050
     0.296975892     0.695597121     0.260076101
     0.447244405     0.545328609     0.390114151
     0.996438867     0.996134146     0.000000000
     0.379861705     0.279377975     0.043346017
     0.530130217     0.129109463     0.173384067
     0.680398730     0.978840950     0.303422117
     0.830667242     0.828572438     0.433460168
     0.377695701     0.948210646     0.044151386
     0.527964214     0.797942133     0.174189436
     0.678232726     0.647673621     0.304227486
     0.828501238     0.497405108     0.434265537
     0.761118539     0.231454475     0.087497403
     0.911387051     0.081185962     0.217535453
     0.061655563     0.930917450     0.347573503
     0.211924076     0.780648938     0.477611554
     0.144541376     0.514698304     0.130843419
     0.294809889     0.364429792     0.260881470
     0.445078401     0.214161279     0.390919520
     0.994272864     0.664966816     0.000805369
     0.327140866     0.662335481     0.000402684
     0.477409378     0.512066969     0.130440735
     0.627677890     0.361798456     0.260478785
     0.777946403     0.211529944     0.390516836
     0.011100728     0.645042286     0.303824802
     0.161369240     0.494773773     0.433862852
     0.710563703     0.945579310     0.043748701
     0.860832215     0.795310798     0.173786752
     0.093986540     0.228823140     0.087094718
     0.244255053     0.078554627     0.217132768
     0.394523565     0.928286115     0.347170819
     0.544792078     0.778017602     0.477208869
