Type_036 Type_136                       
   1.00000000000000     
    10.0797329848999997    0.0000000000000000    0.0000000000000000
     3.5732980426999998    9.4251025535000004    0.0000000000000000
     0.0000000000000000    0.0000000000000000   20.5101398818000007
   Ty   Ty
    36    36
Direct
  0.3743321510001962  0.7513621960081736  0.0951123470021287
  0.5246006629991058  0.6010936830067877  0.2231223169989605
  0.6748691759937060  0.4508251710027409  0.3511322870006666
  0.7601285199643684  0.3421626710791017  0.4638609128766760
  0.5501936825530294  0.0825072149492101  0.0699832148279853
  0.7780658170774046  0.0118021095015735  0.1460774451986353
  0.0582920129980309  0.7340690000058174  0.3938022769979810
  0.9080235009991213  0.8843375130072033  0.2657923070011563
  0.1411778259947809  0.3178498540037111  0.1804523270016389
  0.2914463379972858  0.1675813419996643  0.3084622969984707
  0.4419523945627972  0.0238462562740551  0.4211589093190469
  0.9892463013423338  0.4766806159506061  0.0786316603296839
  0.9940008399119407  0.1286826435484869  0.3952194590244105
  0.5727455669725288  0.5622986651887345  0.0499963339796565
  0.7148581191249548  0.4234607287024019  0.1687594595281823
  0.8596714909921985  0.2660228560026567  0.2834902830018962
  0.0928258159976139  0.6995351980071192  0.1981503019980053
  0.2430943279965305  0.5492666850057333  0.3261602729992177
  0.3786302167066111  0.4136978226886328  0.4369504516277090
  0.9425573029968604  0.8498037100005575  0.0701403320011735
  0.3259801409932734  0.1330475390036270  0.1128103219984951
  0.4762486529957854  0.9827790269995802  0.2408202920002012
  0.6265171659965389  0.8325105150061418  0.3688302630014064
  0.7458240857267668  0.7024955707501874  0.4613020623372606
  0.0377423387385747  0.3697445794057614  0.4276780896986310
  0.6257942036109725  0.7831628923930296  0.0826319744656558
  0.7491048209982267  0.6407955260027620  0.1893013150020124
  0.8993733330007316  0.4905270139987152  0.3173112849988442
  0.0677428981406720  0.0770911855733800  0.1393607128314329
  0.1325276580025516  0.9240393550058386  0.2319713049993339
  0.2827961709971518  0.7737708430017847  0.3599812750010400
  0.4428495225982516  0.6516367091113793  0.4678522092828317
  0.2549135376828247  0.5139548991645881  0.0459966779815630
  0.3656819830018065  0.3575516969996855  0.1466313240003174
  0.5159504960027306  0.2072831839982996  0.2746412950015227
  0.6624811683055398  0.0676574472564440  0.3890379499108363
  0.0638215769989046  0.2620847689962460  0.3413599199980482
  0.7632845529974901  0.5626217940016787  0.0853399799995103
  0.9135530649999950  0.4123532819976319  0.2133499500012164
  0.1467073900018150  0.8458656230047552  0.1280099700017061
  0.2969759029964152  0.6955971110007084  0.2560199399985379
  0.4472444149951542  0.5453285990072700  0.3840299100002440
  0.5458628229777389  0.4366232185104266  0.4926534885637821
  0.9078388916274136  0.0626853052310423  0.0786334561731152
  0.3783718742120570  0.2810171863770776  0.0531364946987551
  0.5301302279919042  0.1291094530051708  0.1706799599990205
  0.6803987400007401  0.9788409400037850  0.2986899300007266
  0.8081620482864551  0.8515918239339939  0.4148794645837981
  0.4285801869294161  0.9429842864680111  0.0608668811082964
  0.5279642239970954  0.7979421230071608  0.1714727689995357
  0.6782327359996003  0.6476736110031140  0.2994827390012418
  0.8285012490005244  0.4974050980017282  0.4274927089980665
  0.9113870609952599  0.0811859519996290  0.2141427590017244
  0.0616555739960205  0.9309174400061906  0.3421527289985562
  0.2232726342789562  0.7456188202313356  0.4522722502556604
  0.1445413860006752  0.5146982940040843  0.1288027790022142
  0.2948098990015993  0.3644297810026984  0.2568127489990459
  0.4450784109941850  0.2141612689986516  0.3848227190007520
  0.0349027932656156  0.6417582376707216  0.0296792576358840
  0.3680722404124595  0.6360146421403101  0.0145520716201872
  0.4774093879924948  0.5120669590070150  0.1284063740022106
  0.6276779009934188  0.3617984460056292  0.2564163449985415
  0.7779464129959237  0.2115299340015824  0.3844263150002476
  0.9729407753206161  0.2323588265028178  0.4828524773099119
  0.0111007380015096  0.6450422749980973  0.2990863350007373
  0.1592007557215496  0.5071665253154123  0.4139645073914977
  0.7308078570137582  0.9169788168183430  0.0518792214110704
  0.8608322259926737  0.7953107879994832  0.1710763639995250
  0.1025132527396408  0.2479954302387952  0.0908832890727425
  0.2442550629970057  0.0785546170025526  0.2137463540017208
  0.3945235759977592  0.9282861050091142  0.3417563249980518
  0.5313088659451282  0.8143507826076402  0.4596190133088811
 
  0.00000000E+00  0.00000000E+00  0.00000000E+00
  0.00000000E+00  0.00000000E+00  0.00000000E+00
  0.00000000E+00  0.00000000E+00  0.00000000E+00
  0.00000000E+00  0.00000000E+00  0.00000000E+00
  0.00000000E+00  0.00000000E+00  0.00000000E+00
  0.00000000E+00  0.00000000E+00  0.00000000E+00
  0.00000000E+00  0.00000000E+00  0.00000000E+00
  0.00000000E+00  0.00000000E+00  0.00000000E+00
  0.00000000E+00  0.00000000E+00  0.00000000E+00
  0.00000000E+00  0.00000000E+00  0.00000000E+00
  0.00000000E+00  0.00000000E+00  0.00000000E+00
  0.00000000E+00  0.00000000E+00  0.00000000E+00
  0.00000000E+00  0.00000000E+00  0.00000000E+00
  0.00000000E+00  0.00000000E+00  0.00000000E+00
  0.00000000E+00  0.00000000E+00  0.00000000E+00
  0.00000000E+00  0.00000000E+00  0.00000000E+00
  0.00000000E+00  0.00000000E+00  0.00000000E+00
  0.00000000E+00  0.00000000E+00  0.00000000E+00
  0.00000000E+00  0.00000000E+00  0.00000000E+00
  0.00000000E+00  0.00000000E+00  0.00000000E+00
  0.00000000E+00  0.00000000E+00  0.00000000E+00
  0.00000000E+00  0.00000000E+00  0.00000000E+00
  0.00000000E+00  0.00000000E+00  0.00000000E+00
  0.00000000E+00  0.00000000E+00  0.00000000E+00
  0.00000000E+00  0.00000000E+00  0.00000000E+00
  0.00000000E+00  0.00000000E+00  0.00000000E+00
  0.00000000E+00  0.00000000E+00  0.00000000E+00
  0.00000000E+00  0.00000000E+00  0.00000000E+00
  0.00000000E+00  0.00000000E+00  0.00000000E+00
  0.00000000E+00  0.00000000E+00  0.00000000E+00
  0.00000000E+00  0.00000000E+00  0.00000000E+00
  0.00000000E+00  0.00000000E+00  0.00000000E+00
  0.00000000E+00  0.00000000E+00  0.00000000E+00
  0.00000000E+00  0.00000000E+00  0.00000000E+00
  0.00000000E+00  0.00000000E+00  0.00000000E+00
  0.00000000E+00  0.00000000E+00  0.00000000E+00
  0.00000000E+00  0.00000000E+00  0.00000000E+00
  0.00000000E+00  0.00000000E+00  0.00000000E+00
  0.00000000E+00  0.00000000E+00  0.00000000E+00
  0.00000000E+00  0.00000000E+00  0.00000000E+00
  0.00000000E+00  0.00000000E+00  0.00000000E+00
  0.00000000E+00  0.00000000E+00  0.00000000E+00
  0.00000000E+00  0.00000000E+00  0.00000000E+00
  0.00000000E+00  0.00000000E+00  0.00000000E+00
  0.00000000E+00  0.00000000E+00  0.00000000E+00
  0.00000000E+00  0.00000000E+00  0.00000000E+00
  0.00000000E+00  0.00000000E+00  0.00000000E+00
  0.00000000E+00  0.00000000E+00  0.00000000E+00
  0.00000000E+00  0.00000000E+00  0.00000000E+00
  0.00000000E+00  0.00000000E+00  0.00000000E+00
  0.00000000E+00  0.00000000E+00  0.00000000E+00
  0.00000000E+00  0.00000000E+00  0.00000000E+00
  0.00000000E+00  0.00000000E+00  0.00000000E+00
  0.00000000E+00  0.00000000E+00  0.00000000E+00
  0.00000000E+00  0.00000000E+00  0.00000000E+00
  0.00000000E+00  0.00000000E+00  0.00000000E+00
  0.00000000E+00  0.00000000E+00  0.00000000E+00
  0.00000000E+00  0.00000000E+00  0.00000000E+00
  0.00000000E+00  0.00000000E+00  0.00000000E+00
  0.00000000E+00  0.00000000E+00  0.00000000E+00
  0.00000000E+00  0.00000000E+00  0.00000000E+00
  0.00000000E+00  0.00000000E+00  0.00000000E+00
  0.00000000E+00  0.00000000E+00  0.00000000E+00
  0.00000000E+00  0.00000000E+00  0.00000000E+00
  0.00000000E+00  0.00000000E+00  0.00000000E+00
  0.00000000E+00  0.00000000E+00  0.00000000E+00
  0.00000000E+00  0.00000000E+00  0.00000000E+00
  0.00000000E+00  0.00000000E+00  0.00000000E+00
  0.00000000E+00  0.00000000E+00  0.00000000E+00
  0.00000000E+00  0.00000000E+00  0.00000000E+00
  0.00000000E+00  0.00000000E+00  0.00000000E+00
  0.00000000E+00  0.00000000E+00  0.00000000E+00
