Structure 40 made from 0-21-10.xsd file
1.0
        8.7007307979       -4.0053990701        0.0000000000
        0.0000000000       11.4527836704       -0.0000000000
        0.0000000000        0.0000000000       20.8468301371
   Ni    S
   39   39
Direct
     0.728992922     0.611159592     0.200119525
     0.820049929     0.793273607     0.320191240
     0.911106937     0.975387622     0.440262955
     0.456364260     0.065902268     0.280167335
     0.547421268     0.248016283     0.400239050
     0.638478275     0.430130299     0.520310765
     0.274250245     0.701674238     0.040023905
     0.365307253     0.883788253     0.160095620
     0.001621584     0.156416915     0.120071715
     0.092678591     0.338530930     0.240143430
     0.183735599     0.520644945     0.360215145
     0.274792606     0.702758960     0.480286860
     0.910564576     0.974302900    -0.000000000
     0.594994522     0.078956792     0.023423430
     0.686051530     0.261070807     0.143495145
     0.777108537     0.443184823     0.263566860
     0.868165545     0.625298838     0.383638575
     0.959222552     0.807412853     0.503710290
     0.595536883     0.080041514     0.463686385
     0.322365861     0.533699469     0.103471240
     0.413422868     0.715813484     0.223542955
     0.504479876     0.897927499     0.343614670
     0.140794207     0.170556161     0.303590765
     0.231851214     0.352670176     0.423662480
     0.049737199     0.988442146     0.183519050
     0.958680191     0.806328131     0.063447335
     0.084255929     0.793273607     0.320191240
     0.175312937     0.975387622     0.440262955
     0.902141914     0.429045576     0.080047810
     0.993198922     0.611159592     0.200119525
     0.720570260     0.065902268     0.280167335
     0.811627268     0.248016283     0.400239050
     0.538456245     0.701674238     0.040023905
     0.629513253     0.883788253     0.160095620
     0.265827584     0.156416915     0.120071715
     0.356884591     0.338530930     0.240143430
     0.447941599     0.520644945     0.360215145
     0.538998606     0.702758960     0.480286860
     0.174770576     0.974302900    -0.000000000
     0.013407097     0.579351942     0.311152161
     0.104464105     0.761465957     0.431223876
     0.831293082     0.215123912     0.071008731
     0.922350090     0.397237927     0.191080446
     0.740778436     0.034094619     0.391199971
     0.831835443     0.216208634     0.511271686
     0.467607413     0.487752574     0.030984826
     0.558664420     0.669866589     0.151056541
     0.649721428     0.851980604     0.271128256
     0.286035759     0.124609265     0.231104351
     0.377092766     0.306723281     0.351176066
     0.468149774     0.488837296     0.471247781
     0.194978751     0.942495250     0.111032636
     0.134252494     0.157472736     0.470504137
     0.043195487     0.975358721     0.350432422
     0.861081472     0.611130691     0.110288992
     0.952138479     0.793244706     0.230360707
     0.588452810     0.065873368     0.190336802
     0.679509817     0.247987383     0.310408517
     0.770566825     0.430101398     0.430480232
     0.497395802     0.883759353     0.070265087
     0.133710133     0.156388014     0.030241182
     0.224767141     0.338502029     0.150312897
     0.315824148     0.520616044     0.270384612
     0.406881156     0.702730060     0.390456327
     0.497938163     0.884844075     0.510528042
     0.494863082     0.215123912     0.071008731
     0.585920090     0.397237927     0.191080446
     0.676977097     0.579351942     0.311152161
     0.768034105     0.761465957     0.431223876
     0.404348436     0.034094619     0.391199971
     0.495405443     0.216208634     0.511271686
     0.131177413     0.487752574     0.030984826
     0.222234420     0.669866589     0.151056541
     0.313291428     0.851980604     0.271128256
     0.040662766     0.306723281     0.351176066
     0.131719774     0.488837296     0.471247781
     0.949605759     0.124609265     0.231104351
     0.858548751     0.942495250     0.111032636
