Structure 33 made from -211-7.xsd file
1.0
        9.4251025535        3.5732980427        0.0000000000
        0.0000000000       10.0797329849        0.0000000000
        0.0000000000       -0.0000000000       20.6835035552
   Ni    S
   36   36
Direct
     0.246790380     0.945220301     0.000000000
     0.397058892     0.794951789     0.126937024
     0.547327404     0.644683277     0.253874049
     0.697595917     0.494414764     0.380811073
     0.847864429     0.344146252     0.507748097
     0.113815063     0.411528951     0.169249366
     0.264083575     0.261260439     0.296186390
     0.414352088     0.110991927     0.423123414
     0.963546550     0.561797464     0.042312341
     0.131108258     0.727569089     0.465435756
     0.830571234     0.028106114     0.211561707
     0.980839746     0.877837602     0.338498732
     0.357357049     0.570447632     0.093399501
     0.507625562     0.420179119     0.220336525
     0.657894074     0.269910607     0.347273550
     0.808162587     0.119642094     0.474210574
     0.074113220     0.187024794     0.135711842
     0.224381733     0.036756282     0.262648867
     0.374650245     0.886487769     0.389585891
     0.524918757     0.736219257     0.516522915
     0.923844708     0.337293306     0.008774818
     0.091406416     0.503064932     0.431898232
     0.640600879     0.953870469     0.051087159
     0.790869391     0.803601957     0.178024184
     0.941137903     0.653333444     0.304961208
     0.032666744     0.159343937     0.440673050
     0.732129719     0.459880962     0.186799002
     0.882398232     0.309612449     0.313736026
     0.298617378     0.226726637     0.102174319
     0.448885890     0.076458124     0.229111343
     0.599154402     0.926189612     0.356048368
     0.749422915     0.775921099     0.482985392
     0.015373548     0.843303799     0.144486660
     0.165642061     0.693035287     0.271423685
     0.315910573     0.542766774     0.398360709
     0.865105036     0.993572312     0.017549636
     0.036604831     0.955193850     0.498057640
     0.585799294     0.405999387     0.117246567
     0.736067806     0.255730875     0.244183592
     0.886336318     0.105462363     0.371120616
     0.152286952     0.172845062     0.032621884
     0.302555464     0.022576550     0.159558909
     0.452823977     0.872308037     0.286495933
     0.603092489     0.722039525     0.413432957
     0.019311635     0.639153712     0.201871250
     0.169580148     0.488885200     0.328808274
     0.319848660     0.338616688     0.455745299
     0.869043123     0.789422225     0.074934226
     0.486085617     0.842143064     0.033014966
     0.636354129     0.691874552     0.159951990
     0.786622642     0.541606039     0.286889015
     0.936891154     0.391337527     0.413826039
     0.202841788     0.458720227     0.075327307
     0.353110300     0.308451714     0.202264332
     0.503378812     0.158183202     0.329201356
     0.653647325     0.007914689     0.456138380
     0.069866471     0.925028877     0.244576673
     0.220134983     0.774760364     0.371513698
     0.370403496     0.624491852     0.498450722
     0.919597958     0.075297389     0.117639649
     0.200210452     0.791588228     0.075720389
     0.350478965     0.641319716     0.202657413
     0.500747477     0.491051204     0.329594438
     0.651015990     0.340782691     0.456531462
     0.067235136     0.257896879     0.244969755
     0.217503648     0.107628366     0.371906779
     0.367772160     0.957359854     0.498843804
     0.916966623     0.408165391     0.118032731
     0.483454282     0.175011066     0.033408048
     0.633722794     0.024742554     0.160345072
     0.783991306     0.874474041     0.287282096
     0.934259819     0.724205529     0.414219121
