Structure 8 made from -120-5.xsd file   
   1.00000000000000     
     6.1690871197000003    1.1673387609999999    0.0000000000000000
     0.0000000000000000   11.2564630381999997    0.0000000000000000
     0.0000000000000000    0.0000000000000000   29.1568199999999997
   Ni   S 
    48    48
Direct
  0.2563094380000024  0.0164585910000028  0.1523934869999977
  0.2563094380000024  0.0164585910000028  0.4809070210000002
  0.0063094380000024  0.2664585830000021  0.3166502540000025
  0.0063094380000024  0.2664585830000021  0.6451637890000015
  0.2563094380000024  0.0164585910000028  0.0655982399999999
  0.2563094380000024  0.0164585910000028  0.3941117740000024
  0.0063094380000024  0.2664585830000021  0.2298550069999976
  0.0063094380000024  0.2664585830000021  0.5583685419999966
  0.1902579380000020  0.2146130850000034  0.1089958629999970
  0.1902579380000020  0.2146130850000034  0.4375093980000031
  0.4402579380000020  0.4646130779999993  0.2732526300000018
  0.4402579380000020  0.4646130779999993  0.6017661650000008
  0.7563094380000024  0.0164585910000028  0.1523934869999977
  0.7563094380000024  0.0164585910000028  0.4809070210000002
  0.5063094380000024  0.2664585830000021  0.3166502540000025
  0.5063094380000024  0.2664585830000021  0.6451637890000015
  0.7563094380000024  0.0164585910000028  0.0655982399999999
  0.7563094380000024  0.0164585910000028  0.3941117740000024
  0.5063094380000024  0.2664585830000021  0.2298550069999976
  0.5063094380000024  0.2664585830000021  0.5583685419999966
  0.6902579380000020  0.2146130850000034  0.1089958629999970
  0.6902579380000020  0.2146130850000034  0.4375093980000031
  0.9402579380000020  0.4646130779999993  0.2732526300000018
  0.9402579380000020  0.4646130779999993  0.6017661650000008
  0.2563094380000024  0.5164585910000028  0.1523934869999977
  0.2563094380000024  0.5164585910000028  0.4809070210000002
  0.0063094380000024  0.7664585830000021  0.3166502540000025
  0.0063094380000024  0.7664585830000021  0.6451637890000015
  0.2563094380000024  0.5164585910000028  0.0655982399999999
  0.2563094380000024  0.5164585910000028  0.3941117740000024
  0.0063094380000024  0.7664585830000021  0.2298550069999976
  0.0063094380000024  0.7664585830000021  0.5583685419999966
  0.1902579380000020  0.7146130850000034  0.1089958629999970
  0.1902579380000020  0.7146130850000034  0.4375093980000031
  0.4402579380000020  0.9646130779999993  0.2732526300000018
  0.4402579380000020  0.9646130779999993  0.6017661650000008
  0.7563094380000024  0.5164585910000028  0.1523934869999977
  0.7563094380000024  0.5164585910000028  0.4809070210000002
  0.5063094380000024  0.7664585830000021  0.3166502540000025
  0.5063094380000024  0.7664585830000021  0.6451637890000015
  0.7563094380000024  0.5164585910000028  0.0655982399999999
  0.7563094380000024  0.5164585910000028  0.3941117740000024
  0.5063094380000024  0.7664585830000021  0.2298550069999976
  0.5063094380000024  0.7664585830000021  0.5583685419999966
  0.6902579380000020  0.7146130850000034  0.1089958629999970
  0.6902579380000020  0.7146130850000034  0.4375093980000031
  0.9402579380000020  0.9646130779999993  0.2732526300000018
  0.9402579380000020  0.9646130779999993  0.6017661650000008
  0.4684041049999976  0.1666175860000010  0.3822484940000024
  0.2184041049999976  0.4166175789999969  0.2179917260000011
  0.2184041049999976  0.4166175789999969  0.5465052610000001
  0.4684041049999976  0.1666175860000010  0.1642567669999977
  0.4684041049999976  0.1666175860000010  0.4927703019999967
  0.2184041049999976  0.4166175789999969  0.0000000000000000
  0.2184041049999976  0.4166175789999969  0.3285135349999990
  0.0525116049999994  0.4142950789999986  0.1089958629999970
  0.0525116049999994  0.4142950789999986  0.4375093980000031
  0.3025116049999994  0.1642950860000028  0.2732526300000018
  0.3025116049999994  0.1642950860000028  0.6017661650000008
  0.9684041049999976  0.1666175860000010  0.0537349590000034
  0.9684041049999976  0.1666175860000010  0.3822484940000024
  0.7184041049999976  0.4166175789999969  0.2179917260000011
  0.7184041049999976  0.4166175789999969  0.5465052610000001
  0.9684041049999976  0.1666175860000010  0.1642567669999977
  0.9684041049999976  0.1666175860000010  0.4927703019999967
  0.7184041049999976  0.4166175789999969  0.3285135349999990
  0.7184041049999976  0.4166175789999969  0.6570270690000015
  0.5525116049999994  0.4142950789999986  0.1089958629999970
  0.5525116049999994  0.4142950789999986  0.4375093980000031
  0.8025116049999994  0.1642950860000028  0.2732526300000018
  0.8025116049999994  0.1642950860000028  0.6017661650000008
  0.4684041049999976  0.6666175860000010  0.0537349590000034
  0.4684041049999976  0.6666175860000010  0.3822484940000024
  0.2184041049999976  0.9166175789999969  0.2179917260000011
  0.2184041049999976  0.9166175789999969  0.5465052610000001
  0.4684041049999976  0.6666175860000010  0.1642567669999977
  0.4684041049999976  0.6666175860000010  0.4927703019999967
  0.2184041049999976  0.9166175789999969  0.3285135349999990
  0.2184041049999976  0.9166175789999969  0.6570270690000015
  0.0525116049999994  0.9142950789999986  0.1089958629999970
  0.0525116049999994  0.9142950789999986  0.4375093980000031
  0.3025116049999994  0.6642950860000028  0.2732526300000018
  0.3025116049999994  0.6642950860000028  0.6017661650000008
  0.9684041049999976  0.6666175860000010  0.0537349590000034
  0.9684041049999976  0.6666175860000010  0.3822484940000024
  0.7184041049999976  0.9166175789999969  0.2179917260000011
  0.7184041049999976  0.9166175789999969  0.5465052610000001
  0.9684041049999976  0.6666175860000010  0.1642567669999977
  0.9684041049999976  0.6666175860000010  0.4927703019999967
  0.7184041049999976  0.9166175789999969  0.0000000000000000
  0.7184041049999976  0.9166175789999969  0.3285135349999990
  0.7184041049999976  0.9166175789999969  0.6570270690000015
  0.5525116049999994  0.9142950789999986  0.1089958629999970
  0.5525116049999994  0.9142950789999986  0.4375093980000031
  0.8025116049999994  0.6642950860000028  0.2732526300000018
  0.8025116049999994  0.6642950860000028  0.6017661650000008
 
  0.00000000E+00  0.00000000E+00  0.00000000E+00
  0.00000000E+00  0.00000000E+00  0.00000000E+00
  0.00000000E+00  0.00000000E+00  0.00000000E+00
  0.00000000E+00  0.00000000E+00  0.00000000E+00
  0.00000000E+00  0.00000000E+00  0.00000000E+00
  0.00000000E+00  0.00000000E+00  0.00000000E+00
  0.00000000E+00  0.00000000E+00  0.00000000E+00
  0.00000000E+00  0.00000000E+00  0.00000000E+00
  0.00000000E+00  0.00000000E+00  0.00000000E+00
  0.00000000E+00  0.00000000E+00  0.00000000E+00
  0.00000000E+00  0.00000000E+00  0.00000000E+00
  0.00000000E+00  0.00000000E+00  0.00000000E+00
  0.00000000E+00  0.00000000E+00  0.00000000E+00
  0.00000000E+00  0.00000000E+00  0.00000000E+00
  0.00000000E+00  0.00000000E+00  0.00000000E+00
  0.00000000E+00  0.00000000E+00  0.00000000E+00
  0.00000000E+00  0.00000000E+00  0.00000000E+00
  0.00000000E+00  0.00000000E+00  0.00000000E+00
  0.00000000E+00  0.00000000E+00  0.00000000E+00
  0.00000000E+00  0.00000000E+00  0.00000000E+00
  0.00000000E+00  0.00000000E+00  0.00000000E+00
  0.00000000E+00  0.00000000E+00  0.00000000E+00
  0.00000000E+00  0.00000000E+00  0.00000000E+00
  0.00000000E+00  0.00000000E+00  0.00000000E+00
  0.00000000E+00  0.00000000E+00  0.00000000E+00
  0.00000000E+00  0.00000000E+00  0.00000000E+00
  0.00000000E+00  0.00000000E+00  0.00000000E+00
  0.00000000E+00  0.00000000E+00  0.00000000E+00
  0.00000000E+00  0.00000000E+00  0.00000000E+00
  0.00000000E+00  0.00000000E+00  0.00000000E+00
  0.00000000E+00  0.00000000E+00  0.00000000E+00
  0.00000000E+00  0.00000000E+00  0.00000000E+00
  0.00000000E+00  0.00000000E+00  0.00000000E+00
  0.00000000E+00  0.00000000E+00  0.00000000E+00
  0.00000000E+00  0.00000000E+00  0.00000000E+00
  0.00000000E+00  0.00000000E+00  0.00000000E+00
  0.00000000E+00  0.00000000E+00  0.00000000E+00
  0.00000000E+00  0.00000000E+00  0.00000000E+00
  0.00000000E+00  0.00000000E+00  0.00000000E+00
  0.00000000E+00  0.00000000E+00  0.00000000E+00
  0.00000000E+00  0.00000000E+00  0.00000000E+00
  0.00000000E+00  0.00000000E+00  0.00000000E+00
  0.00000000E+00  0.00000000E+00  0.00000000E+00
  0.00000000E+00  0.00000000E+00  0.00000000E+00
  0.00000000E+00  0.00000000E+00  0.00000000E+00
  0.00000000E+00  0.00000000E+00  0.00000000E+00
  0.00000000E+00  0.00000000E+00  0.00000000E+00
  0.00000000E+00  0.00000000E+00  0.00000000E+00
  0.00000000E+00  0.00000000E+00  0.00000000E+00
  0.00000000E+00  0.00000000E+00  0.00000000E+00
  0.00000000E+00  0.00000000E+00  0.00000000E+00
  0.00000000E+00  0.00000000E+00  0.00000000E+00
  0.00000000E+00  0.00000000E+00  0.00000000E+00
  0.00000000E+00  0.00000000E+00  0.00000000E+00
  0.00000000E+00  0.00000000E+00  0.00000000E+00
  0.00000000E+00  0.00000000E+00  0.00000000E+00
  0.00000000E+00  0.00000000E+00  0.00000000E+00
  0.00000000E+00  0.00000000E+00  0.00000000E+00
  0.00000000E+00  0.00000000E+00  0.00000000E+00
  0.00000000E+00  0.00000000E+00  0.00000000E+00
  0.00000000E+00  0.00000000E+00  0.00000000E+00
  0.00000000E+00  0.00000000E+00  0.00000000E+00
  0.00000000E+00  0.00000000E+00  0.00000000E+00
  0.00000000E+00  0.00000000E+00  0.00000000E+00
  0.00000000E+00  0.00000000E+00  0.00000000E+00
  0.00000000E+00  0.00000000E+00  0.00000000E+00
  0.00000000E+00  0.00000000E+00  0.00000000E+00
  0.00000000E+00  0.00000000E+00  0.00000000E+00
  0.00000000E+00  0.00000000E+00  0.00000000E+00
  0.00000000E+00  0.00000000E+00  0.00000000E+00
  0.00000000E+00  0.00000000E+00  0.00000000E+00
  0.00000000E+00  0.00000000E+00  0.00000000E+00
  0.00000000E+00  0.00000000E+00  0.00000000E+00
  0.00000000E+00  0.00000000E+00  0.00000000E+00
  0.00000000E+00  0.00000000E+00  0.00000000E+00
  0.00000000E+00  0.00000000E+00  0.00000000E+00
  0.00000000E+00  0.00000000E+00  0.00000000E+00
  0.00000000E+00  0.00000000E+00  0.00000000E+00
  0.00000000E+00  0.00000000E+00  0.00000000E+00
  0.00000000E+00  0.00000000E+00  0.00000000E+00
  0.00000000E+00  0.00000000E+00  0.00000000E+00
  0.00000000E+00  0.00000000E+00  0.00000000E+00
  0.00000000E+00  0.00000000E+00  0.00000000E+00
  0.00000000E+00  0.00000000E+00  0.00000000E+00
  0.00000000E+00  0.00000000E+00  0.00000000E+00
  0.00000000E+00  0.00000000E+00  0.00000000E+00
  0.00000000E+00  0.00000000E+00  0.00000000E+00
  0.00000000E+00  0.00000000E+00  0.00000000E+00
  0.00000000E+00  0.00000000E+00  0.00000000E+00
  0.00000000E+00  0.00000000E+00  0.00000000E+00
  0.00000000E+00  0.00000000E+00  0.00000000E+00
  0.00000000E+00  0.00000000E+00  0.00000000E+00
  0.00000000E+00  0.00000000E+00  0.00000000E+00
  0.00000000E+00  0.00000000E+00  0.00000000E+00
  0.00000000E+00  0.00000000E+00  0.00000000E+00
  0.00000000E+00  0.00000000E+00  0.00000000E+00
