Type_036 Type_136                       
   1.00000000000000     
    10.0797329848999997    0.0000000000000000    0.0000000000000000
     3.5732980426999998    9.4251025535000004    0.0000000000000000
     0.0000000000000000    0.0000000000000000   20.6835035552000015
   Ty   Ty
    36    36
Direct
  0.2408159436880624  0.9609831681498875  0.0639677536336620
  0.3970588919990305  0.7949517889985884  0.1269370240004619
  0.5473274039977767  0.6446832770051500  0.2538740490017162
  0.6975959169987007  0.4944147640037642  0.3808110730021710
  0.8250414049489407  0.3444549448212015  0.4840845826471565
  0.1138150629981425  0.4115289509990134  0.1692493660011465
  0.2640835749968886  0.2612604390055751  0.2961863900016013
  0.4143520880014009  0.1109919270015283  0.4231234140020632
  0.9671279396010846  0.6056175214115171  0.1068513855934441
  0.1036608888182258  0.7863811704359307  0.4529946603676080
  0.5452040258590358  0.2235919241554996  0.1490923471001935
  0.8305712340008427  0.0281061139967775  0.2115617070010316
  0.9808397459995888  0.8778376020033392  0.3384987320022859
  0.3653123627480923  0.5539893852572533  0.1125066922047111
  0.5076255620029286  0.4201791189984831  0.2203365250010663
  0.6578940739917485  0.2699106070050448  0.3472735500023276
  0.7826355813385035  0.1256252187367792  0.4567847335672823
  0.0741132200011165  0.1870247940002940  0.1357118420004966
  0.2243817329957096  0.0367562819962473  0.2626488670017508
  0.3746502450007796  0.8864877690054698  0.3895858910022127
  0.4369434125838296  0.7173532035987549  0.4702259806054414
  0.0687951535355822  0.3797252135119678  0.0485688109811306
  0.0919831458763483  0.4948985269415331  0.4194169295326660
  0.7908693909901316  0.8036019570086665  0.1780241840011811
  0.9411379029989675  0.6533334440072807  0.3049612080016431
  0.0241253352040118  0.1650829599219819  0.4260060835188995
  0.5812083170494020  0.6002048030447469  0.0804921993102781
  0.7321297189962763  0.4598809620050659  0.1867990020012158
  0.8823982319972004  0.3096124490036800  0.3137360260016777
  0.2986173780002304  0.2267266369962684  0.1021743190006461
  0.4488858899953811  0.0764581240054909  0.2291113430011080
  0.5991544019978861  0.9261896120014441  0.3560483680023623
  0.0153735480034882  0.8433037990073018  0.1444866600005312
  0.1656420609980884  0.6930352870032550  0.2714236850017926
  0.3159105729969980  0.5427667740018691  0.3983607090022474
  0.7389325513357505  0.0280882490028418  0.0952490948422877
  0.9946597747520443  0.9999539410316700  0.4804848535102977
  0.5857992939907959  0.4059993870070926  0.1172465670009899
  0.7360678059933008  0.2557308750030458  0.2441835920022513
  0.8863363179958057  0.1054623629989990  0.3711206159978744
  0.1624125400524505  0.1672913771335516  0.0406692157474708
  0.3025554640014079  0.0225765500048567  0.1595589090016745
  0.4528239770023319  0.8723080370034708  0.2864959330021364
  0.5814318789506956  0.7235028365041742  0.3990108978091911
  0.0193116350005198  0.6391537120052817  0.2018712500015667
  0.1695801479951129  0.4888852000012349  0.3288082740020215
  0.3006887145958999  0.3447746247804275  0.4296357245852533
  0.8616710109546730  0.8157069684133091  0.0829073110521890
  0.4437224841288696  0.7827911639497458  0.0331776386901055
  0.6363541289969774  0.6918745520045775  0.1599519899987243
  0.7866226419979014  0.5416060390031916  0.2868890149999856
  0.9368911540004063  0.3913375269991448  0.4138260390004405
  0.2072489320316180  0.4661483307328567  0.0872319776620429
  0.3531102999960822  0.3084517140050025  0.2022643319994160
  0.5033788119985942  0.1581832020009557  0.3292013559998708
  0.6326973635508892  0.0307500080720473  0.4373107839955850
  0.0698664709987895  0.9250288770027666  0.2445766729993011
  0.2201349829976991  0.7747603640013807  0.3715136980005553
  0.2856635511112486  0.6338587525905979  0.4886407625732758
  0.9195979579980289  0.0752973889962050  0.1176396489988392
  0.2076257580103373  0.7740676076878117  0.0916878655996953
  0.3504789649941600  0.6413197160019664  0.2026574130012975
  0.5007474769966649  0.4910512039979125  0.3295944379977200
  0.6478084189264024  0.3426390478266725  0.4411355816218148
  0.0672351359968673  0.2578968789997234  0.2449697550019820
  0.2175036479957768  0.1076283659983446  0.3719067789976052
  0.4109146557144996  0.9346966002007662  0.4805798504238865
  0.9169666229923479  0.4081653910037772  0.1180327310015272
  0.5139662392709781  0.1326840588525613  0.0657322020745497
  0.6392794298844962  0.0093503688262047  0.1803586606081637
  0.7839913059939647  0.8744740410001555  0.2872820960018672
  0.9684543738865017  0.7117519029125958  0.3994921985507958
 
  0.00000000E+00  0.00000000E+00  0.00000000E+00
  0.00000000E+00  0.00000000E+00  0.00000000E+00
  0.00000000E+00  0.00000000E+00  0.00000000E+00
  0.00000000E+00  0.00000000E+00  0.00000000E+00
  0.00000000E+00  0.00000000E+00  0.00000000E+00
  0.00000000E+00  0.00000000E+00  0.00000000E+00
  0.00000000E+00  0.00000000E+00  0.00000000E+00
  0.00000000E+00  0.00000000E+00  0.00000000E+00
  0.00000000E+00  0.00000000E+00  0.00000000E+00
  0.00000000E+00  0.00000000E+00  0.00000000E+00
  0.00000000E+00  0.00000000E+00  0.00000000E+00
  0.00000000E+00  0.00000000E+00  0.00000000E+00
  0.00000000E+00  0.00000000E+00  0.00000000E+00
  0.00000000E+00  0.00000000E+00  0.00000000E+00
  0.00000000E+00  0.00000000E+00  0.00000000E+00
  0.00000000E+00  0.00000000E+00  0.00000000E+00
  0.00000000E+00  0.00000000E+00  0.00000000E+00
  0.00000000E+00  0.00000000E+00  0.00000000E+00
  0.00000000E+00  0.00000000E+00  0.00000000E+00
  0.00000000E+00  0.00000000E+00  0.00000000E+00
  0.00000000E+00  0.00000000E+00  0.00000000E+00
  0.00000000E+00  0.00000000E+00  0.00000000E+00
  0.00000000E+00  0.00000000E+00  0.00000000E+00
  0.00000000E+00  0.00000000E+00  0.00000000E+00
  0.00000000E+00  0.00000000E+00  0.00000000E+00
  0.00000000E+00  0.00000000E+00  0.00000000E+00
  0.00000000E+00  0.00000000E+00  0.00000000E+00
  0.00000000E+00  0.00000000E+00  0.00000000E+00
  0.00000000E+00  0.00000000E+00  0.00000000E+00
  0.00000000E+00  0.00000000E+00  0.00000000E+00
  0.00000000E+00  0.00000000E+00  0.00000000E+00
  0.00000000E+00  0.00000000E+00  0.00000000E+00
  0.00000000E+00  0.00000000E+00  0.00000000E+00
  0.00000000E+00  0.00000000E+00  0.00000000E+00
  0.00000000E+00  0.00000000E+00  0.00000000E+00
  0.00000000E+00  0.00000000E+00  0.00000000E+00
  0.00000000E+00  0.00000000E+00  0.00000000E+00
  0.00000000E+00  0.00000000E+00  0.00000000E+00
  0.00000000E+00  0.00000000E+00  0.00000000E+00
  0.00000000E+00  0.00000000E+00  0.00000000E+00
  0.00000000E+00  0.00000000E+00  0.00000000E+00
  0.00000000E+00  0.00000000E+00  0.00000000E+00
  0.00000000E+00  0.00000000E+00  0.00000000E+00
  0.00000000E+00  0.00000000E+00  0.00000000E+00
  0.00000000E+00  0.00000000E+00  0.00000000E+00
  0.00000000E+00  0.00000000E+00  0.00000000E+00
  0.00000000E+00  0.00000000E+00  0.00000000E+00
  0.00000000E+00  0.00000000E+00  0.00000000E+00
  0.00000000E+00  0.00000000E+00  0.00000000E+00
  0.00000000E+00  0.00000000E+00  0.00000000E+00
  0.00000000E+00  0.00000000E+00  0.00000000E+00
  0.00000000E+00  0.00000000E+00  0.00000000E+00
  0.00000000E+00  0.00000000E+00  0.00000000E+00
  0.00000000E+00  0.00000000E+00  0.00000000E+00
  0.00000000E+00  0.00000000E+00  0.00000000E+00
  0.00000000E+00  0.00000000E+00  0.00000000E+00
  0.00000000E+00  0.00000000E+00  0.00000000E+00
  0.00000000E+00  0.00000000E+00  0.00000000E+00
  0.00000000E+00  0.00000000E+00  0.00000000E+00
  0.00000000E+00  0.00000000E+00  0.00000000E+00
  0.00000000E+00  0.00000000E+00  0.00000000E+00
  0.00000000E+00  0.00000000E+00  0.00000000E+00
  0.00000000E+00  0.00000000E+00  0.00000000E+00
  0.00000000E+00  0.00000000E+00  0.00000000E+00
  0.00000000E+00  0.00000000E+00  0.00000000E+00
  0.00000000E+00  0.00000000E+00  0.00000000E+00
  0.00000000E+00  0.00000000E+00  0.00000000E+00
  0.00000000E+00  0.00000000E+00  0.00000000E+00
  0.00000000E+00  0.00000000E+00  0.00000000E+00
  0.00000000E+00  0.00000000E+00  0.00000000E+00
  0.00000000E+00  0.00000000E+00  0.00000000E+00
  0.00000000E+00  0.00000000E+00  0.00000000E+00
