Type_026 Type_126                       
   1.00000000000000     
    11.2564630381999997    0.0000000000000000    0.0000000000000000
     0.0000000000000000    9.5784099999999999    0.0000000000000000
     0.0000000000000000    0.0000000000000000   17.1924924047000012
   Ty   Ty
    26    26
Direct
  0.4393349899979597  0.4638879969953251  0.1628337709973167
  0.4826105814734376  0.4693526403964725  0.3235076281481710
  0.1321558228238899  0.0519442717319478  0.1336457382916691
  0.2152609639970393  0.9638879969953251  0.2525398899994897
  0.4393349899979597  0.1996819970015906  0.1628337709973167
  0.4829439952808912  0.1939847674509636  0.3233061743206278
  0.2411224077216048  0.8304877361691538  0.1125568364928284
  0.2152609639970393  0.6996819970015906  0.2525398899994897
  0.1346470475278494  0.3295856994636921  0.1587547310391031
  0.1801966697546575  0.3329778381276256  0.3028359879790727
  0.4629037723676674  0.8180408665321295  0.0926381728901973
  0.4065656619996147  0.8317849969984579  0.2288389949978651
  0.3188743738525162  0.8307684820340739  0.3637525134511819
  0.9260572519204828  0.4728812012432115  0.1853543360547789
  0.9850436430316805  0.4667202987865409  0.3255469046518158
  0.6067016913415841  0.0354269538263665  0.1273106457386959
  0.7210913376923358  0.9680875406356577  0.2425620138043456
  0.9393349899979597  0.1996819970015906  0.1628337709973167
  0.9739161678580928  0.1804508146968047  0.3192530094356485
  0.6224653083408000  0.6197872507754454  0.1339757018168157
  0.7286997863772697  0.6918199225654362  0.2472476172295970
  0.6306397029963620  0.3317849969984579  0.1391328760015114
  0.6824916370025633  0.3317849969984579  0.3185451150004752
  0.7401260090960378  0.8326342124110369  0.1059343995988655
  0.9065656619996147  0.8317849969984579  0.2288389949978651
  0.9636208578742469  0.8270930024085388  0.3638449422371082
  0.0572771234900387  0.2113388114102435  0.0724830257862621
  0.1114890379989788  0.1635699970036768  0.2389385289986805
  0.3355630629960302  0.6635699970036768  0.1492324090018826
  0.3820084487380484  0.6573186928728276  0.3091055774988831
  0.1114890379989788  0.4999999970036768  0.2389385289986805
  0.0619103701966637  0.3151770739506858  0.3923472482940298
  0.3355630629960302  0.9999999970036768  0.1492324090018826
  0.3837037476019347  0.0045694960019489  0.3102800771540046
  0.3093732089095766  0.3325197500420245  0.1156311536863939
  0.3678888029967027  0.3317849969984579  0.2691183590015811
  0.0919628440023317  0.8317849969984579  0.1794122389989710
  0.1416017651717780  0.8300424478071022  0.3411724976651129
  0.5423507473246403  0.1977248213638774  0.0639251224388815
  0.6114890379989788  0.1635699970036768  0.2389385289986805
  0.6187603409493150  0.1969464692991849  0.3989643489925214
  0.8355630629960302  0.6635699970036768  0.1492324090018826
  0.8889162635850525  0.6581406828168781  0.3092602137341345
  0.5454844440178519  0.4745360428192171  0.0654038306099594
  0.6114890379989788  0.4999999970036768  0.2389385289986805
  0.6181681552087852  0.4657212778634445  0.3992556637467786
  0.8355630629960302  0.9999999970036768  0.1492324090018826
  0.8735418177477854  0.9899561013153573  0.3148712244083995
  0.8164246921357616  0.3436909842552183  0.1174965062859528
  0.8678888029967027  0.3317849969984579  0.2691183590015811
  0.6048740282354927  0.8993351360298831  0.0313119617928592
  0.5919628440023317  0.8317849969984579  0.1794122389989710
 
  0.00000000E+00  0.00000000E+00  0.00000000E+00
  0.00000000E+00  0.00000000E+00  0.00000000E+00
  0.00000000E+00  0.00000000E+00  0.00000000E+00
  0.00000000E+00  0.00000000E+00  0.00000000E+00
  0.00000000E+00  0.00000000E+00  0.00000000E+00
  0.00000000E+00  0.00000000E+00  0.00000000E+00
  0.00000000E+00  0.00000000E+00  0.00000000E+00
  0.00000000E+00  0.00000000E+00  0.00000000E+00
  0.00000000E+00  0.00000000E+00  0.00000000E+00
  0.00000000E+00  0.00000000E+00  0.00000000E+00
  0.00000000E+00  0.00000000E+00  0.00000000E+00
  0.00000000E+00  0.00000000E+00  0.00000000E+00
  0.00000000E+00  0.00000000E+00  0.00000000E+00
  0.00000000E+00  0.00000000E+00  0.00000000E+00
  0.00000000E+00  0.00000000E+00  0.00000000E+00
  0.00000000E+00  0.00000000E+00  0.00000000E+00
  0.00000000E+00  0.00000000E+00  0.00000000E+00
  0.00000000E+00  0.00000000E+00  0.00000000E+00
  0.00000000E+00  0.00000000E+00  0.00000000E+00
  0.00000000E+00  0.00000000E+00  0.00000000E+00
  0.00000000E+00  0.00000000E+00  0.00000000E+00
  0.00000000E+00  0.00000000E+00  0.00000000E+00
  0.00000000E+00  0.00000000E+00  0.00000000E+00
  0.00000000E+00  0.00000000E+00  0.00000000E+00
  0.00000000E+00  0.00000000E+00  0.00000000E+00
  0.00000000E+00  0.00000000E+00  0.00000000E+00
  0.00000000E+00  0.00000000E+00  0.00000000E+00
  0.00000000E+00  0.00000000E+00  0.00000000E+00
  0.00000000E+00  0.00000000E+00  0.00000000E+00
  0.00000000E+00  0.00000000E+00  0.00000000E+00
  0.00000000E+00  0.00000000E+00  0.00000000E+00
  0.00000000E+00  0.00000000E+00  0.00000000E+00
  0.00000000E+00  0.00000000E+00  0.00000000E+00
  0.00000000E+00  0.00000000E+00  0.00000000E+00
  0.00000000E+00  0.00000000E+00  0.00000000E+00
  0.00000000E+00  0.00000000E+00  0.00000000E+00
  0.00000000E+00  0.00000000E+00  0.00000000E+00
  0.00000000E+00  0.00000000E+00  0.00000000E+00
  0.00000000E+00  0.00000000E+00  0.00000000E+00
  0.00000000E+00  0.00000000E+00  0.00000000E+00
  0.00000000E+00  0.00000000E+00  0.00000000E+00
  0.00000000E+00  0.00000000E+00  0.00000000E+00
  0.00000000E+00  0.00000000E+00  0.00000000E+00
  0.00000000E+00  0.00000000E+00  0.00000000E+00
  0.00000000E+00  0.00000000E+00  0.00000000E+00
  0.00000000E+00  0.00000000E+00  0.00000000E+00
  0.00000000E+00  0.00000000E+00  0.00000000E+00
  0.00000000E+00  0.00000000E+00  0.00000000E+00
  0.00000000E+00  0.00000000E+00  0.00000000E+00
  0.00000000E+00  0.00000000E+00  0.00000000E+00
  0.00000000E+00  0.00000000E+00  0.00000000E+00
  0.00000000E+00  0.00000000E+00  0.00000000E+00
