Structure 1 made from -120-3.xsd file   
   1.00000000000000     
     6.1690871197000003    1.1673387609999999    0.0000000000000000
     0.0000000000000000   11.2564630381999997    0.0000000000000000
     0.0000000000000000    0.0000000000000000   28.8109244581000006
   Ni   S 
    48    48
Direct
  0.2563094380000024  0.0164585910000028  0.0878372849999991
  0.2563094380000024  0.0164585910000028  0.4202948579999983
  0.0063094380000024  0.2664585830000021  0.2540660709999969
  0.0063094380000024  0.2664585830000021  0.5865236440000032
  0.2563094380000024  0.0164585910000028  0.0000000000000000
  0.2563094380000024  0.0164585910000028  0.3324575720000027
  0.0063094380000024  0.2664585830000021  0.1662287859999978
  0.0063094380000024  0.2664585830000021  0.4986863580000005
  0.1902579380000020  0.2146130850000034  0.0439186429999978
  0.1902579380000020  0.2146130850000034  0.3763762150000005
  0.4402579380000020  0.4646130779999993  0.2101474290000027
  0.4402579380000020  0.4646130779999993  0.5426050009999983
  0.7563094380000024  0.0164585910000028  0.0878372849999991
  0.7563094380000024  0.0164585910000028  0.4202948579999983
  0.5063094380000024  0.2664585830000021  0.2540660709999969
  0.5063094380000024  0.2664585830000021  0.5865236440000032
  0.7563094380000024  0.0164585910000028  0.0000000000000000
  0.7563094380000024  0.0164585910000028  0.3324575720000027
  0.5063094380000024  0.2664585830000021  0.1662287859999978
  0.5063094380000024  0.2664585830000021  0.4986863580000005
  0.6902579380000020  0.2146130850000034  0.0439186429999978
  0.6902579380000020  0.2146130850000034  0.3763762150000005
  0.9402579380000020  0.4646130779999993  0.2101474290000027
  0.9402579380000020  0.4646130779999993  0.5426050009999983
  0.2563094380000024  0.5164585910000028  0.0878372849999991
  0.2563094380000024  0.5164585910000028  0.4202948579999983
  0.0063094380000024  0.7664585830000021  0.2540660709999969
  0.0063094380000024  0.7664585830000021  0.5865236440000032
  0.2563094380000024  0.5164585910000028  0.0000000000000000
  0.2563094380000024  0.5164585910000028  0.3324575720000027
  0.0063094380000024  0.7664585830000021  0.1662287859999978
  0.0063094380000024  0.7664585830000021  0.4986863580000005
  0.1902579380000020  0.7146130850000034  0.0439186429999978
  0.1902579380000020  0.7146130850000034  0.3763762150000005
  0.4402579380000020  0.9646130779999993  0.2101474290000027
  0.4402579380000020  0.9646130779999993  0.5426050009999983
  0.7563094380000024  0.5164585910000028  0.0878372849999991
  0.7563094380000024  0.5164585910000028  0.4202948579999983
  0.5063094380000024  0.7664585830000021  0.2540660709999969
  0.5063094380000024  0.7664585830000021  0.5865236440000032
  0.7563094380000024  0.5164585910000028  0.0000000000000000
  0.7563094380000024  0.5164585910000028  0.3324575720000027
  0.5063094380000024  0.7664585830000021  0.1662287859999978
  0.5063094380000024  0.7664585830000021  0.4986863580000005
  0.6902579380000020  0.7146130850000034  0.0439186429999978
  0.6902579380000020  0.7146130850000034  0.3763762150000005
  0.9402579380000020  0.9646130779999993  0.2101474290000027
  0.9402579380000020  0.9646130779999993  0.5426050009999983
  0.4684041049999976  0.1666175860000010  0.3204518639999989
  0.4684041049999976  0.1666175860000010  0.6529094369999981
  0.2184041049999976  0.4166175789999969  0.1542230780000011
  0.2184041049999976  0.4166175789999969  0.4866806510000004
  0.4684041049999976  0.1666175860000010  0.0998429930000029
  0.4684041049999976  0.1666175860000010  0.4323005649999985
  0.2184041049999976  0.4166175789999969  0.2660717790000007
  0.2184041049999976  0.4166175789999969  0.5985293519999999
  0.0525116049999994  0.4142950789999986  0.0439186429999978
  0.0525116049999994  0.4142950789999986  0.3763762150000005
  0.3025116049999994  0.1642950860000028  0.2101474290000027
  0.3025116049999994  0.1642950860000028  0.5426050009999983
  0.9684041049999976  0.1666175860000010  0.3204518639999989
  0.9684041049999976  0.1666175860000010  0.6529094369999981
  0.7184041049999976  0.4166175789999969  0.1542230780000011
  0.7184041049999976  0.4166175789999969  0.4866806510000004
  0.9684041049999976  0.1666175860000010  0.0998429930000029
  0.9684041049999976  0.1666175860000010  0.4323005649999985
  0.7184041049999976  0.4166175789999969  0.2660717790000007
  0.7184041049999976  0.4166175789999969  0.5985293519999999
  0.5525116049999994  0.4142950789999986  0.0439186429999978
  0.5525116049999994  0.4142950789999986  0.3763762150000005
  0.8025116049999994  0.1642950860000028  0.2101474290000027
  0.8025116049999994  0.1642950860000028  0.5426050009999983
  0.4684041049999976  0.6666175860000010  0.3204518639999989
  0.4684041049999976  0.6666175860000010  0.6529094369999981
  0.2184041049999976  0.9166175789999969  0.1542230780000011
  0.2184041049999976  0.9166175789999969  0.4866806510000004
  0.4684041049999976  0.6666175860000010  0.0998429930000029
  0.4684041049999976  0.6666175860000010  0.4323005649999985
  0.2184041049999976  0.9166175789999969  0.2660717790000007
  0.2184041049999976  0.9166175789999969  0.5985293519999999
  0.0525116049999994  0.9142950789999986  0.0439186429999978
  0.0525116049999994  0.9142950789999986  0.3763762150000005
  0.3025116049999994  0.6642950860000028  0.2101474290000027
  0.3025116049999994  0.6642950860000028  0.5426050009999983
  0.9684041049999976  0.6666175860000010  0.3204518639999989
  0.9684041049999976  0.6666175860000010  0.6529094369999981
  0.7184041049999976  0.9166175789999969  0.1542230780000011
  0.7184041049999976  0.9166175789999969  0.4866806510000004
  0.9684041049999976  0.6666175860000010  0.0998429930000029
  0.9684041049999976  0.6666175860000010  0.4323005649999985
  0.7184041049999976  0.9166175789999969  0.2660717790000007
  0.7184041049999976  0.9166175789999969  0.5985293519999999
  0.5525116049999994  0.9142950789999986  0.0439186429999978
  0.5525116049999994  0.9142950789999986  0.3763762150000005
  0.8025116049999994  0.6642950860000028  0.2101474290000027
  0.8025116049999994  0.6642950860000028  0.5426050009999983
 
  0.00000000E+00  0.00000000E+00  0.00000000E+00
  0.00000000E+00  0.00000000E+00  0.00000000E+00
  0.00000000E+00  0.00000000E+00  0.00000000E+00
  0.00000000E+00  0.00000000E+00  0.00000000E+00
  0.00000000E+00  0.00000000E+00  0.00000000E+00
  0.00000000E+00  0.00000000E+00  0.00000000E+00
  0.00000000E+00  0.00000000E+00  0.00000000E+00
  0.00000000E+00  0.00000000E+00  0.00000000E+00
  0.00000000E+00  0.00000000E+00  0.00000000E+00
  0.00000000E+00  0.00000000E+00  0.00000000E+00
  0.00000000E+00  0.00000000E+00  0.00000000E+00
  0.00000000E+00  0.00000000E+00  0.00000000E+00
  0.00000000E+00  0.00000000E+00  0.00000000E+00
  0.00000000E+00  0.00000000E+00  0.00000000E+00
  0.00000000E+00  0.00000000E+00  0.00000000E+00
  0.00000000E+00  0.00000000E+00  0.00000000E+00
  0.00000000E+00  0.00000000E+00  0.00000000E+00
  0.00000000E+00  0.00000000E+00  0.00000000E+00
  0.00000000E+00  0.00000000E+00  0.00000000E+00
  0.00000000E+00  0.00000000E+00  0.00000000E+00
  0.00000000E+00  0.00000000E+00  0.00000000E+00
  0.00000000E+00  0.00000000E+00  0.00000000E+00
  0.00000000E+00  0.00000000E+00  0.00000000E+00
  0.00000000E+00  0.00000000E+00  0.00000000E+00
  0.00000000E+00  0.00000000E+00  0.00000000E+00
  0.00000000E+00  0.00000000E+00  0.00000000E+00
  0.00000000E+00  0.00000000E+00  0.00000000E+00
  0.00000000E+00  0.00000000E+00  0.00000000E+00
  0.00000000E+00  0.00000000E+00  0.00000000E+00
  0.00000000E+00  0.00000000E+00  0.00000000E+00
  0.00000000E+00  0.00000000E+00  0.00000000E+00
  0.00000000E+00  0.00000000E+00  0.00000000E+00
  0.00000000E+00  0.00000000E+00  0.00000000E+00
  0.00000000E+00  0.00000000E+00  0.00000000E+00
  0.00000000E+00  0.00000000E+00  0.00000000E+00
  0.00000000E+00  0.00000000E+00  0.00000000E+00
  0.00000000E+00  0.00000000E+00  0.00000000E+00
  0.00000000E+00  0.00000000E+00  0.00000000E+00
  0.00000000E+00  0.00000000E+00  0.00000000E+00
  0.00000000E+00  0.00000000E+00  0.00000000E+00
  0.00000000E+00  0.00000000E+00  0.00000000E+00
  0.00000000E+00  0.00000000E+00  0.00000000E+00
  0.00000000E+00  0.00000000E+00  0.00000000E+00
  0.00000000E+00  0.00000000E+00  0.00000000E+00
  0.00000000E+00  0.00000000E+00  0.00000000E+00
  0.00000000E+00  0.00000000E+00  0.00000000E+00
  0.00000000E+00  0.00000000E+00  0.00000000E+00
  0.00000000E+00  0.00000000E+00  0.00000000E+00
  0.00000000E+00  0.00000000E+00  0.00000000E+00
  0.00000000E+00  0.00000000E+00  0.00000000E+00
  0.00000000E+00  0.00000000E+00  0.00000000E+00
  0.00000000E+00  0.00000000E+00  0.00000000E+00
  0.00000000E+00  0.00000000E+00  0.00000000E+00
  0.00000000E+00  0.00000000E+00  0.00000000E+00
  0.00000000E+00  0.00000000E+00  0.00000000E+00
  0.00000000E+00  0.00000000E+00  0.00000000E+00
  0.00000000E+00  0.00000000E+00  0.00000000E+00
  0.00000000E+00  0.00000000E+00  0.00000000E+00
  0.00000000E+00  0.00000000E+00  0.00000000E+00
  0.00000000E+00  0.00000000E+00  0.00000000E+00
  0.00000000E+00  0.00000000E+00  0.00000000E+00
  0.00000000E+00  0.00000000E+00  0.00000000E+00
  0.00000000E+00  0.00000000E+00  0.00000000E+00
  0.00000000E+00  0.00000000E+00  0.00000000E+00
  0.00000000E+00  0.00000000E+00  0.00000000E+00
  0.00000000E+00  0.00000000E+00  0.00000000E+00
  0.00000000E+00  0.00000000E+00  0.00000000E+00
  0.00000000E+00  0.00000000E+00  0.00000000E+00
  0.00000000E+00  0.00000000E+00  0.00000000E+00
  0.00000000E+00  0.00000000E+00  0.00000000E+00
  0.00000000E+00  0.00000000E+00  0.00000000E+00
  0.00000000E+00  0.00000000E+00  0.00000000E+00
  0.00000000E+00  0.00000000E+00  0.00000000E+00
  0.00000000E+00  0.00000000E+00  0.00000000E+00
  0.00000000E+00  0.00000000E+00  0.00000000E+00
  0.00000000E+00  0.00000000E+00  0.00000000E+00
  0.00000000E+00  0.00000000E+00  0.00000000E+00
  0.00000000E+00  0.00000000E+00  0.00000000E+00
  0.00000000E+00  0.00000000E+00  0.00000000E+00
  0.00000000E+00  0.00000000E+00  0.00000000E+00
  0.00000000E+00  0.00000000E+00  0.00000000E+00
  0.00000000E+00  0.00000000E+00  0.00000000E+00
  0.00000000E+00  0.00000000E+00  0.00000000E+00
  0.00000000E+00  0.00000000E+00  0.00000000E+00
  0.00000000E+00  0.00000000E+00  0.00000000E+00
  0.00000000E+00  0.00000000E+00  0.00000000E+00
  0.00000000E+00  0.00000000E+00  0.00000000E+00
  0.00000000E+00  0.00000000E+00  0.00000000E+00
  0.00000000E+00  0.00000000E+00  0.00000000E+00
  0.00000000E+00  0.00000000E+00  0.00000000E+00
  0.00000000E+00  0.00000000E+00  0.00000000E+00
  0.00000000E+00  0.00000000E+00  0.00000000E+00
  0.00000000E+00  0.00000000E+00  0.00000000E+00
  0.00000000E+00  0.00000000E+00  0.00000000E+00
  0.00000000E+00  0.00000000E+00  0.00000000E+00
  0.00000000E+00  0.00000000E+00  0.00000000E+00
