Type_036 Type_136 
1.0
1.0079732984900000e+01 0.0000000000000000e+00 0.0000000000000000e+00 
3.5732980426999998e+00 9.4251025535000004e+00 0.0000000000000000e+00 
0.0000000000000000e+00 0.0000000000000000e+00 2.0683503555200002e+01 
Type_0 Type_1 
36 36 
Cartesian
   6.5359499630    9.3196959585    1.1895242359
   6.8428472823    7.4925021364    2.6255023872
   7.8205595795    6.0762060003    5.2510047951
   8.7982718832    4.6599098547    7.8765071823
   9.5652485205    3.2463494423   10.0285299974
   2.6177410398    3.8787025669    3.5006698634
   3.5954533370    2.4624064308    6.1261722506
   4.5731656443    1.0461102946    8.7516746378
   3.7887008815    7.3817244571    9.3364500318
   7.9201075990    1.9975745830    2.9923088368
   8.4723677858    0.2649030068    4.3758373189
  13.0233781257    8.2737094242    7.0013397268
   5.2216111648    4.4740162378    2.7811641962
   6.6181553448    3.9602312874    4.5573312982
   7.5958676419    2.5439351513    7.1828337061
   8.3898646770    1.1552020670    9.4810330095
   1.4153367986    1.7627278635    2.8069963665
   2.3930491058    0.3464317273    5.4324987744
   6.9440594422    8.3552381353    8.0580011616
   6.9592390953    6.8150265130    9.7951663166
   2.6638671022    4.7998879915    8.6563482599
   9.0006273389    8.3460837574    1.9827601394
  10.8432615872    7.5740308570    3.6821638427
  11.8209738809    6.1577347114    6.3076662299
   0.8408810167    1.5589771300    8.8051352101
   8.0014071315    5.6348024999    1.6896922568
   9.0229638192    4.3344252293    3.8636578220
  10.0006761229    2.9181290837    6.4891602092
   3.8201452831    2.1369218053    2.1133228903
   4.7978575767    0.7206256598    4.7388252775
   9.3488679166    8.7294320771    7.3643276854
  10.3193716582    7.7041573208    9.3463059341
   3.1683370733    7.9482247894    2.9884903458
   4.1460493805    6.5319286532    5.6139927537
   5.1237616741    5.1156325076    8.2394951409
  11.3866522799    9.2131995404    1.8009011412
   3.5772706648    9.4080769530    9.9439345069
   7.3554572811    3.8265858592    2.4250697854
   8.3331695783    2.4102897230    5.0505721933
   9.3108818755    0.9939935868    7.6760745804
   2.1656143324    1.7691386116    0.9095608739
   3.1303510322    0.2127862991    3.3002372616
   7.6813613786    8.2215927070    5.9257396488
   8.6590736757    6.8052965708    8.5512420359
   2.4785428324    6.0240892831    4.1754047171
   3.4562551396    4.6077931469    6.8009071043
   4.1949654046    3.3102045549    8.8966008487
  11.6868258015    7.2181446989    1.8227400668
   7.5933394936    7.4427153198    0.7121457263
   8.8865536866    6.5209886068    3.3083675538
   9.8642659903    5.1046924612    5.9338699617
  10.8419782875    3.6883963250    8.5593723489
   3.5506709315    4.1421149579    1.6941977580
   4.6614474441    2.9071890373    4.1835350300
   5.6391597413    1.4908929011    6.8090374172
   6.4873686833    0.2887200089    9.1442434663
   4.0096392479    8.7184920307    5.0587024855
   4.9873515415    7.3021958851    7.6842048934
   5.1279835422    5.9963077253   10.0974469435
   9.5383618828    0.7096856133    2.4332000983
   4.9594575697    8.0081352858    1.8596646556
   5.8243608699    6.0445040929    4.1916653223
   6.8020731671    4.6282079567    6.8171677301
   7.7821022669    3.2054197238    9.1252391295
   1.5992546310    2.4307045328    5.0668327985
   2.5769669246    1.0144083872    7.6923351856
   7.4108928033    8.8660979950    9.9539229706
  10.7217295597    3.6968079804    2.8328865237
   4.8636184118    0.6966525544    0.9905175176
   6.4761690697    0.2332011089    3.3164978668
  11.0271794060    8.2420075168    5.9420002540
  12.0048917133    6.8257113807    8.5675026618
