Type_048 Type_148 
1.0
1.1256463038200000e+01 0.0000000000000000e+00 0.0000000000000000e+00 
5.0445621212000002e+00 1.0062820337100000e+01 0.0000000000000000e+00 
0.0000000000000000e+00 0.0000000000000000e+00 2.2519955973199998e+01 
Type_0 Type_1 
48 48 
Cartesian
   5.3522814431    4.8178808643    6.6478400406
   5.9359508271    3.8723796038    9.5838980147
   2.2463310804    0.7319720972    3.7117820891
   0.8996382891    0.6194931502   10.9836437547
   4.7686120570    3.3545317851    2.9360579516
   5.3522814460    2.4090305347    5.8721159257
   5.9359508187    1.4635292742    8.8081738772
   1.8774643571    3.7383592494    5.8721159257
   2.4611337299    2.7928579889    8.8081738772
   6.9220263184    4.6838604999    2.9360579516
  10.9805129622    4.8178808643    6.6478400406
  11.5641823462    3.8723796038    9.5838980147
   7.8745625995    0.7319720972    3.7117820891
   6.3876397428    0.5463548400   10.9561411228
  10.6926666415    5.3053503633    1.3385556760
  10.3968435761    3.3545317851    2.9360579516
  10.9805129651    2.4090305347    5.8721159257
  11.5641823378    1.4635292742    8.8081738772
   7.5056958763    3.7383592494    5.8721159257
   8.0893652490    2.7928579889    8.8081738772
  12.5502578375    4.6838604999    2.9360579516
  10.5688379860    0.3448201428    0.8351118698
   7.8745625037    9.8492910329    6.6478400406
   8.4582318877    8.9037897724    9.5838980147
   9.6219166430    7.0281506490   11.3473204509
   4.7686121410    5.7633822657    3.7117820891
   2.9487346901    5.2346392579   10.8191225156
   2.5616961057    0.2510576581    1.3013150743
   7.2908931175    8.3859419536    2.9360579516
   7.8745625066    7.4404407032    5.8721159257
   8.4582318793    6.4949394427    8.8081738772
   4.3997454177    8.7697694179    5.8721159257
   4.9834147905    7.8242681574    8.8081738772
   5.5967304968    7.2429398513   11.0786908531
   9.4443073790    9.7152706684    2.9360579516
   5.0619296468    5.2865497619    1.3394132351
  13.5027940228    9.8492910329    6.6478400406
  14.0864634068    8.9037897724    9.5838980147
  10.3968436601    5.7633822657    3.7117820891
   8.2796267872    5.1009563349   10.6349874041
   8.1227591486    0.2480504039    1.2971697247
  12.9191246367    8.3859419536    2.9360579516
  13.5027940257    7.4404407032    5.8721159257
  14.0864633984    6.4949394427    8.8081738772
  10.0279769369    8.7697694179    5.8721159257
  10.6116463096    7.8242681574    8.8081738772
  11.9520368657    7.1498853671   10.5768209649
  15.0725388981    9.7152706684    2.9360579516
   1.6618956013    1.6787143752    7.0115334562
   2.2784148005    0.7150726372    9.4926407816
   6.1122566717    3.5794265809    1.3973827427
   6.7064575738    2.6242156256    4.0754755046
   2.0152420047    3.4561048980   10.6985959176
   7.2901269524    4.7460539320    7.9993114444
   3.6828416753    1.5757430423    2.4169409356
   4.1841765897    0.6601451649    5.0632534928
   3.3633200867    4.8466954754    2.4053253845
   3.9643807089    3.9988379098    5.0632534928
   4.5480500867    3.0533366593    7.9993114444
   5.1744807236    2.1465394321   10.5865511942
   7.2901271205    1.6787143752    7.0115334562
   7.8453296579    0.7030673953    9.5322121247
  11.7441729669    3.5936514582    1.3816595022
  12.3346890930    2.6242156256    4.0754755046
   7.5548800026    3.2400077506   10.7452594680
  12.9183584715    4.7460539320    7.9993114444
   9.4458375956    1.5491728072    2.2052523212
   9.8124081088    0.6601451649    5.0632534928
   8.9977502350    4.8480798851    2.4194782816
   9.5926122281    3.9988379098    5.0632534928
  10.1762816058    3.0533366593    7.9993114444
  10.9039555298    2.1746619460   10.6183824341
   4.1841766619    6.7101245437    7.0115334562
   4.7678460459    5.7646232832    9.9475914303
   8.6464041900    8.5941693782    1.4041333317
   9.2287386344    7.6556257942    4.0754755046
   4.7802295312    9.0452571650   10.5460616081
   9.8124080130    9.7774641005    7.9993114444
   6.2213585691    6.6030121732    2.4237698822
   6.7064576503    5.6915553334    5.0632534928
   5.8492297410    9.9060820530    2.2830507381
   6.4866617695    9.0302480783    5.0632534928
   7.0703311473    8.0847468279    7.9993114444
   7.6540005313    7.1392455673   10.9353693959
   9.8124081810    6.7101245437    7.0115334562
  10.3960775650    5.7646232832    9.9475914303
  14.4089295940    8.7205691964    1.2524978639
  14.8569701535    7.6556257942    4.0754755046
  10.3960775546    8.8319628400   10.9353693959
  15.4406395321    9.7774641005    7.9993114444
  11.8527404302    6.6170607143    2.4185527703
  12.3346891694    5.6915553334    5.0632534928
  11.5152366173    9.8683303682    2.4454404856
  12.1148932887    9.0302480783    5.0632534928
  12.6985626664    8.0847468279    7.9993114444
  13.9454007321    7.2699673895   10.8705105530
