Structure 9 made from -112-5.xsd file   
   1.00000000000000     
    16.8846940542000006    0.0000000000000000    0.0000000000000000
     0.0000000000000000    9.5784099999999999    0.0000000000000000
     0.0000000000000000    0.0000000000000000   16.1690871196999986
   Ni   S 
    36    36
Direct
  0.7800463049999991  0.1452969569999993  0.0971485769999987
  0.8146142619999992  0.1452969569999993  0.2879165240000034
  0.2627623260000007  0.6452969569999993  0.0017646040000017
  0.2973302839999974  0.6452969569999993  0.1925325509999993
  0.4351903190000002  0.1452969569999993  0.0335592610000006
  0.4697582760000003  0.1452969569999993  0.2243272090000019
  0.9524742979999985  0.6452969569999993  0.1289432350000013
  0.9870422549999986  0.6452969569999993  0.3197111819999989
  0.1249022909999979  0.1452969569999993  0.1607378929999967
  0.1594702479999981  0.1452969569999993  0.3515058400000015
  0.6076183119999996  0.6452969569999993  0.0653539190000032
  0.6421862689999998  0.6452969569999993  0.2561218669999974
  0.9075827739999980  0.0131939569999986  0.0719475590000016
  0.9421507309999981  0.0131939569999986  0.2627155059999993
  0.4248667530000034  0.5131939569999986  0.1673315330000023
  0.4594347099999965  0.5131939569999986  0.3580994799999999
  0.5627267879999991  0.0131939569999986  0.0083582430000035
  0.5972947460000029  0.0131939569999986  0.1991261909999977
  0.0800107669999974  0.5131939569999986  0.1037422169999971
  0.1145787239999976  0.5131939569999986  0.2945101640000019
  0.2524387599999969  0.0131939569999986  0.1355368749999997
  0.2870067169999970  0.0131939569999986  0.3263048219999973
  0.7351547809999985  0.5131939569999986  0.0401529009999990
  0.7697227379999987  0.5131939569999986  0.2309208479999967
  0.9075827739999980  0.2773999570000001  0.0719475590000016
  0.9421507309999981  0.2773999570000001  0.2627155059999993
  0.4248667530000034  0.7773999570000001  0.1673315330000023
  0.4594347099999965  0.7773999570000001  0.3580994799999999
  0.5627267879999991  0.2773999570000001  0.0083582430000035
  0.5972947460000029  0.2773999570000001  0.1991261909999977
  0.0800107669999974  0.7773999570000001  0.1037422169999971
  0.1145787239999976  0.7773999570000001  0.2945101640000019
  0.2524387599999969  0.2773999570000001  0.1355368749999997
  0.2870067169999970  0.2773999570000001  0.3263048219999973
  0.7351547809999985  0.7773999570000001  0.0401529009999990
  0.7697227379999987  0.7773999570000001  0.2309208479999967
  0.9914612039999966  0.1452969569999993  0.1589732890000022
  0.4741772249999983  0.6452969569999993  0.0635893159999981
  0.5087451819999984  0.6452969569999993  0.2543572630000028
  0.6466052179999977  0.1452969569999993  0.0953839740000006
  0.6811731749999979  0.1452969569999993  0.2861519209999983
  0.1293212389999994  0.6452969569999993  0.0000000000000000
  0.1638891970000032  0.6452969569999993  0.1907679469999977
  0.1984571540000033  0.6452969569999993  0.3815358949999990
  0.3017492319999988  0.1452969569999993  0.0317946580000026
  0.3363171889999990  0.1452969569999993  0.2225626050000002
  0.8190332109999972  0.6452969569999993  0.1271786320000032
  0.8536011679999973  0.6452969569999993  0.3179465790000009
  0.7944930959999965  0.3135119570000029  0.0002953719999965
  0.8290610529999967  0.3135119570000029  0.1910633199999978
  0.3117770739999983  0.8135119570000029  0.0956793459999972
  0.3463450309999985  0.8135119570000029  0.2864472930000019
  0.4842050669999978  0.3135119570000029  0.1274740039999998
  0.5187730239999979  0.3135119570000029  0.3182419509999974
  0.0014890460000032  0.8135119570000029  0.2228579780000004
  0.9669210879999994  0.8135119570000029  0.0320900299999991
  0.1393490809999989  0.3135119570000029  0.0638846880000017
  0.1739170379999990  0.3135119570000029  0.2546526349999993
  0.6566330599999972  0.8135119570000029  0.1592686620000023
  0.6912010169999974  0.8135119570000029  0.3500366090000000
  0.3117770739999983  0.4770819570000029  0.0956793459999972
  0.3463450309999985  0.4770819570000029  0.2864472930000019
  0.7944930959999965  0.9770819570000029  0.0002953719999965
  0.8290610529999967  0.9770819570000029  0.1910633199999978
  0.0014890460000032  0.4770819570000029  0.2228579780000004
  0.9669210879999994  0.4770819570000029  0.0320900299999991
  0.4842050669999978  0.9770819570000029  0.1274740039999998
  0.5187730239999979  0.9770819570000029  0.3182419509999974
  0.6566330599999972  0.4770819570000029  0.1592686620000023
  0.6912010169999974  0.4770819570000029  0.3500366090000000
  0.1393490809999989  0.9770819570000029  0.0638846880000017
  0.1739170379999990  0.9770819570000029  0.2546526349999993
 
  0.00000000E+00  0.00000000E+00  0.00000000E+00
  0.00000000E+00  0.00000000E+00  0.00000000E+00
  0.00000000E+00  0.00000000E+00  0.00000000E+00
  0.00000000E+00  0.00000000E+00  0.00000000E+00
  0.00000000E+00  0.00000000E+00  0.00000000E+00
  0.00000000E+00  0.00000000E+00  0.00000000E+00
  0.00000000E+00  0.00000000E+00  0.00000000E+00
  0.00000000E+00  0.00000000E+00  0.00000000E+00
  0.00000000E+00  0.00000000E+00  0.00000000E+00
  0.00000000E+00  0.00000000E+00  0.00000000E+00
  0.00000000E+00  0.00000000E+00  0.00000000E+00
  0.00000000E+00  0.00000000E+00  0.00000000E+00
  0.00000000E+00  0.00000000E+00  0.00000000E+00
  0.00000000E+00  0.00000000E+00  0.00000000E+00
  0.00000000E+00  0.00000000E+00  0.00000000E+00
  0.00000000E+00  0.00000000E+00  0.00000000E+00
  0.00000000E+00  0.00000000E+00  0.00000000E+00
  0.00000000E+00  0.00000000E+00  0.00000000E+00
  0.00000000E+00  0.00000000E+00  0.00000000E+00
  0.00000000E+00  0.00000000E+00  0.00000000E+00
  0.00000000E+00  0.00000000E+00  0.00000000E+00
  0.00000000E+00  0.00000000E+00  0.00000000E+00
  0.00000000E+00  0.00000000E+00  0.00000000E+00
  0.00000000E+00  0.00000000E+00  0.00000000E+00
  0.00000000E+00  0.00000000E+00  0.00000000E+00
  0.00000000E+00  0.00000000E+00  0.00000000E+00
  0.00000000E+00  0.00000000E+00  0.00000000E+00
  0.00000000E+00  0.00000000E+00  0.00000000E+00
  0.00000000E+00  0.00000000E+00  0.00000000E+00
  0.00000000E+00  0.00000000E+00  0.00000000E+00
  0.00000000E+00  0.00000000E+00  0.00000000E+00
  0.00000000E+00  0.00000000E+00  0.00000000E+00
  0.00000000E+00  0.00000000E+00  0.00000000E+00
  0.00000000E+00  0.00000000E+00  0.00000000E+00
  0.00000000E+00  0.00000000E+00  0.00000000E+00
  0.00000000E+00  0.00000000E+00  0.00000000E+00
  0.00000000E+00  0.00000000E+00  0.00000000E+00
  0.00000000E+00  0.00000000E+00  0.00000000E+00
  0.00000000E+00  0.00000000E+00  0.00000000E+00
  0.00000000E+00  0.00000000E+00  0.00000000E+00
  0.00000000E+00  0.00000000E+00  0.00000000E+00
  0.00000000E+00  0.00000000E+00  0.00000000E+00
  0.00000000E+00  0.00000000E+00  0.00000000E+00
  0.00000000E+00  0.00000000E+00  0.00000000E+00
  0.00000000E+00  0.00000000E+00  0.00000000E+00
  0.00000000E+00  0.00000000E+00  0.00000000E+00
  0.00000000E+00  0.00000000E+00  0.00000000E+00
  0.00000000E+00  0.00000000E+00  0.00000000E+00
  0.00000000E+00  0.00000000E+00  0.00000000E+00
  0.00000000E+00  0.00000000E+00  0.00000000E+00
  0.00000000E+00  0.00000000E+00  0.00000000E+00
  0.00000000E+00  0.00000000E+00  0.00000000E+00
  0.00000000E+00  0.00000000E+00  0.00000000E+00
  0.00000000E+00  0.00000000E+00  0.00000000E+00
  0.00000000E+00  0.00000000E+00  0.00000000E+00
  0.00000000E+00  0.00000000E+00  0.00000000E+00
  0.00000000E+00  0.00000000E+00  0.00000000E+00
  0.00000000E+00  0.00000000E+00  0.00000000E+00
  0.00000000E+00  0.00000000E+00  0.00000000E+00
  0.00000000E+00  0.00000000E+00  0.00000000E+00
  0.00000000E+00  0.00000000E+00  0.00000000E+00
  0.00000000E+00  0.00000000E+00  0.00000000E+00
  0.00000000E+00  0.00000000E+00  0.00000000E+00
  0.00000000E+00  0.00000000E+00  0.00000000E+00
  0.00000000E+00  0.00000000E+00  0.00000000E+00
  0.00000000E+00  0.00000000E+00  0.00000000E+00
  0.00000000E+00  0.00000000E+00  0.00000000E+00
  0.00000000E+00  0.00000000E+00  0.00000000E+00
  0.00000000E+00  0.00000000E+00  0.00000000E+00
  0.00000000E+00  0.00000000E+00  0.00000000E+00
  0.00000000E+00  0.00000000E+00  0.00000000E+00
  0.00000000E+00  0.00000000E+00  0.00000000E+00
