Structure 50 made from 01-2-9.xsd file  
   1.00000000000000     
    16.8846940542000006    0.0000000000000000    0.0000000000000000
     0.0000000000000000    9.5784099999999999    0.0000000000000000
     0.0000000000000000    0.0000000000000000   16.1738630213000008
   Ni   S 
    36    36
Direct
  0.0649726110000017  0.9234131270000034  0.3097922039999972
  0.0995405680000019  0.9234131270000034  0.1190805880000028
  0.5822565889999964  0.4234131270000034  0.2144363960000035
  0.6168245470000002  0.4234131270000034  0.0237247789999984
  0.2374006040000012  0.4234131270000034  0.2780069350000005
  0.2719685610000013  0.4234131270000034  0.0872953180000025
  0.7201166250000028  0.9234131270000034  0.3733627430000013
  0.7546845820000030  0.9234131270000034  0.1826511260000032
  0.4098285970000006  0.9234131270000034  0.2462216650000002
  0.4443965540000008  0.9234131270000034  0.0555100489999987
  0.8925446180000023  0.4234131270000034  0.3415774730000010
  0.9271125750000024  0.4234131270000034  0.1508658569999994
  0.4201521629999974  0.5555161269999971  0.3799544350000019
  0.4547201199999975  0.5555161269999971  0.1892428190000004
  0.9374361420000028  0.0555161269999971  0.2845986270000012
  0.9720040990000030  0.0555161269999971  0.0938870109999996
  0.1098641350000022  0.5555161269999971  0.2528133579999974
  0.1444320920000024  0.5555161269999971  0.0621017409999993
  0.5925801559999968  0.0555161269999971  0.3481691659999981
  0.6271481129999970  0.0555161269999971  0.1574575499999966
  0.2822921269999981  0.0555161269999971  0.2210280879999971
  0.3168600850000018  0.0555161269999971  0.0303164720000026
  0.7650081490000034  0.5555161269999971  0.3163838970000015
  0.7995761060000035  0.5555161269999971  0.1256722800000034
  0.0649726110000017  0.1876191269999978  0.3097922039999972
  0.0995405680000019  0.1876191269999978  0.1190805880000028
  0.5822565889999964  0.6876191269999978  0.2144363960000035
  0.6168245470000002  0.6876191269999978  0.0237247789999984
  0.2374006040000012  0.6876191269999978  0.2780069350000005
  0.2719685610000013  0.6876191269999978  0.0872953180000025
  0.7201166250000028  0.1876191269999978  0.3733627430000013
  0.7546845820000030  0.1876191269999978  0.1826511260000032
  0.4098285970000006  0.1876191269999978  0.2462216650000002
  0.4443965540000008  0.1876191269999978  0.0555100489999987
  0.8925446180000023  0.6876191269999978  0.3415774730000010
  0.9271125750000024  0.6876191269999978  0.1508658569999994
  0.4691669110000021  0.7237311270000006  0.2860674249999988
  0.9518829319999966  0.2237311270000006  0.3814232329999996
  0.9864508889999968  0.2237311270000006  0.1907116160000015
  0.1243109250000032  0.7237311270000006  0.3496379629999993
  0.1588788820000033  0.7237311270000006  0.1589263469999977
  0.6415949040000015  0.2237311270000006  0.2542821549999985
  0.6761628610000017  0.2237311270000006  0.0635705389999970
  0.2967389180000026  0.2237311270000006  0.3178526940000026
  0.3313068750000028  0.2237311270000006  0.1271410780000011
  0.8140228970000010  0.7237311270000006  0.2224968860000018
  0.8485908540000011  0.7237311270000006  0.0317852689999967
  0.1488510410000004  0.0555161269999971  0.2227921710000018
  0.1834189980000005  0.0555161269999971  0.0320805550000003
  0.6315670620000020  0.5555161269999971  0.3181479790000026
  0.6661350190000022  0.5555161269999971  0.1274363630000011
  0.2867110760000031  0.5555161269999971  0.3817185179999996
  0.3212790330000033  0.5555161269999971  0.1910069019999980
  0.3558469909999999  0.5555161269999971  0.0002952850000000
  0.8039950550000015  0.0555161269999971  0.2863627099999988
  0.8385630120000016  0.0555161269999971  0.0956510930000007
  0.0109910050000011  0.5555161269999971  0.0638658239999970
  0.4937070260000027  0.0555161269999971  0.1592216319999977
  0.9764230480000009  0.5555161269999971  0.2545774399999985
  0.0210188470000006  0.8873011270000006  0.0000000000000000
  0.4691669110000021  0.3873011270000006  0.2860674249999988
  0.5037348680000022  0.3873011270000006  0.0953558080000008
  0.9518829319999966  0.8873011270000006  0.3814232329999996
  0.9864508889999968  0.8873011270000006  0.1907116160000015
  0.1243109250000032  0.3873011270000006  0.3496379629999993
  0.1588788820000033  0.3873011270000006  0.1589263469999977
  0.6415949040000015  0.8873011270000006  0.2542821549999985
  0.6761628610000017  0.8873011270000006  0.0635705389999970
  0.2967389180000026  0.8873011270000006  0.3178526940000026
  0.3313068750000028  0.8873011270000006  0.1271410780000011
  0.8140228970000010  0.3873011270000006  0.2224968860000018
  0.8485908540000011  0.3873011270000006  0.0317852689999967
 
  0.00000000E+00  0.00000000E+00  0.00000000E+00
  0.00000000E+00  0.00000000E+00  0.00000000E+00
  0.00000000E+00  0.00000000E+00  0.00000000E+00
  0.00000000E+00  0.00000000E+00  0.00000000E+00
  0.00000000E+00  0.00000000E+00  0.00000000E+00
  0.00000000E+00  0.00000000E+00  0.00000000E+00
  0.00000000E+00  0.00000000E+00  0.00000000E+00
  0.00000000E+00  0.00000000E+00  0.00000000E+00
  0.00000000E+00  0.00000000E+00  0.00000000E+00
  0.00000000E+00  0.00000000E+00  0.00000000E+00
  0.00000000E+00  0.00000000E+00  0.00000000E+00
  0.00000000E+00  0.00000000E+00  0.00000000E+00
  0.00000000E+00  0.00000000E+00  0.00000000E+00
  0.00000000E+00  0.00000000E+00  0.00000000E+00
  0.00000000E+00  0.00000000E+00  0.00000000E+00
  0.00000000E+00  0.00000000E+00  0.00000000E+00
  0.00000000E+00  0.00000000E+00  0.00000000E+00
  0.00000000E+00  0.00000000E+00  0.00000000E+00
  0.00000000E+00  0.00000000E+00  0.00000000E+00
  0.00000000E+00  0.00000000E+00  0.00000000E+00
  0.00000000E+00  0.00000000E+00  0.00000000E+00
  0.00000000E+00  0.00000000E+00  0.00000000E+00
  0.00000000E+00  0.00000000E+00  0.00000000E+00
  0.00000000E+00  0.00000000E+00  0.00000000E+00
  0.00000000E+00  0.00000000E+00  0.00000000E+00
  0.00000000E+00  0.00000000E+00  0.00000000E+00
  0.00000000E+00  0.00000000E+00  0.00000000E+00
  0.00000000E+00  0.00000000E+00  0.00000000E+00
  0.00000000E+00  0.00000000E+00  0.00000000E+00
  0.00000000E+00  0.00000000E+00  0.00000000E+00
  0.00000000E+00  0.00000000E+00  0.00000000E+00
  0.00000000E+00  0.00000000E+00  0.00000000E+00
  0.00000000E+00  0.00000000E+00  0.00000000E+00
  0.00000000E+00  0.00000000E+00  0.00000000E+00
  0.00000000E+00  0.00000000E+00  0.00000000E+00
  0.00000000E+00  0.00000000E+00  0.00000000E+00
  0.00000000E+00  0.00000000E+00  0.00000000E+00
  0.00000000E+00  0.00000000E+00  0.00000000E+00
  0.00000000E+00  0.00000000E+00  0.00000000E+00
  0.00000000E+00  0.00000000E+00  0.00000000E+00
  0.00000000E+00  0.00000000E+00  0.00000000E+00
  0.00000000E+00  0.00000000E+00  0.00000000E+00
  0.00000000E+00  0.00000000E+00  0.00000000E+00
  0.00000000E+00  0.00000000E+00  0.00000000E+00
  0.00000000E+00  0.00000000E+00  0.00000000E+00
  0.00000000E+00  0.00000000E+00  0.00000000E+00
  0.00000000E+00  0.00000000E+00  0.00000000E+00
  0.00000000E+00  0.00000000E+00  0.00000000E+00
  0.00000000E+00  0.00000000E+00  0.00000000E+00
  0.00000000E+00  0.00000000E+00  0.00000000E+00
  0.00000000E+00  0.00000000E+00  0.00000000E+00
  0.00000000E+00  0.00000000E+00  0.00000000E+00
  0.00000000E+00  0.00000000E+00  0.00000000E+00
  0.00000000E+00  0.00000000E+00  0.00000000E+00
  0.00000000E+00  0.00000000E+00  0.00000000E+00
  0.00000000E+00  0.00000000E+00  0.00000000E+00
  0.00000000E+00  0.00000000E+00  0.00000000E+00
  0.00000000E+00  0.00000000E+00  0.00000000E+00
  0.00000000E+00  0.00000000E+00  0.00000000E+00
  0.00000000E+00  0.00000000E+00  0.00000000E+00
  0.00000000E+00  0.00000000E+00  0.00000000E+00
  0.00000000E+00  0.00000000E+00  0.00000000E+00
  0.00000000E+00  0.00000000E+00  0.00000000E+00
  0.00000000E+00  0.00000000E+00  0.00000000E+00
  0.00000000E+00  0.00000000E+00  0.00000000E+00
  0.00000000E+00  0.00000000E+00  0.00000000E+00
  0.00000000E+00  0.00000000E+00  0.00000000E+00
  0.00000000E+00  0.00000000E+00  0.00000000E+00
  0.00000000E+00  0.00000000E+00  0.00000000E+00
  0.00000000E+00  0.00000000E+00  0.00000000E+00
  0.00000000E+00  0.00000000E+00  0.00000000E+00
  0.00000000E+00  0.00000000E+00  0.00000000E+00
