Structure 1 made from 0-21-7.xsd file   
   1.00000000000000     
     8.7007307979000004   -4.0053990701000002    0.0000000000000000
     0.0000000000000000   11.4527836704000006    0.0000000000000000
     0.0000000000000000    0.0000000000000000   20.2008947274999997
   Ni   S 
    38    38
Direct
  0.6379359140000034  0.4290455760000000  0.0506318010000015
  0.7289929220000033  0.6111595919999999  0.1745428799999971
  0.8200499289999996  0.7932736070000033  0.2984539580000032
  0.9111069369999996  0.9753876219999995  0.4223650360000022
  0.4563642600000009  0.0659022680000021  0.2571502649999999
  0.5474212680000008  0.2480162829999983  0.3810613429999989
  0.6384782749999971  0.4301302989999982  0.5049724220000016
  0.2742502449999975  0.7016742380000025  0.0093281090000019
  0.3653072529999974  0.8837882529999987  0.1332391870000009
  0.0016215839999987  0.1564169150000012  0.0919354939999977
  0.0926785910000021  0.3385309299999975  0.2158465719999967
  0.1837355990000020  0.5206449450000008  0.3397576509999993
  0.2747926059999983  0.7027589599999970  0.4636687289999983
  0.6860515300000003  0.2610708070000030  0.1161079020000031
  0.7771085369999966  0.4431848230000028  0.2400189800000021
  0.8681655449999965  0.6252988379999991  0.3639300580000011
  0.9592225520000000  0.8074128530000024  0.4878411369999966
  0.5955368830000012  0.0800415140000013  0.4465374440000005
  0.3223658610000015  0.5336994689999983  0.0748042089999998
  0.4134228679999978  0.7158134840000017  0.1987152869999989
  0.5044798759999978  0.8979274989999979  0.3226263660000015
  0.1407942069999990  0.1705561610000004  0.2813226729999982
  0.2318512140000024  0.3526701759999966  0.4052337509999973
  0.0497371989999991  0.9884421459999970  0.1574115949999992
  0.9586801909999991  0.8063281310000008  0.0335005170000002
  0.0842559290000011  0.7932736070000033  0.2984539580000032
  0.1753129370000011  0.9753876219999995  0.4223650360000022
  0.9021419139999978  0.4290455760000000  0.0506318010000015
  0.9931989219999977  0.6111595919999999  0.1745428799999971
  0.7205702600000023  0.0659022680000021  0.2571502649999999
  0.8116272680000023  0.2480162829999983  0.3810613429999989
  0.9026842749999986  0.4301302989999982  0.5049724220000016
  0.5384562449999990  0.7016742380000025  0.0093281090000019
  0.6295132529999989  0.8837882529999987  0.1332391870000009
  0.2658275840000002  0.1564169150000012  0.0919354939999977
  0.3568845909999965  0.3385309299999975  0.2158465719999967
  0.4479415990000035  0.5206449450000008  0.3397576509999993
  0.5389986059999998  0.7027589599999970  0.4636687289999983
  0.0134070969999982  0.5793519420000024  0.2891258490000013
  0.1044641049999981  0.7614659569999986  0.4130369270000003
  0.8312930820000020  0.2151239120000028  0.0413036930000032
  0.9223500900000019  0.3972379269999990  0.1652147710000023
  0.7407784359999994  0.0340946190000011  0.3717332350000007
  0.8318354430000028  0.2162086339999973  0.4956443129999997
  0.4676074130000032  0.4877525739999982  0.0000000000000000
  0.5586644199999995  0.6698665890000015  0.1239110779999990
  0.6497214279999994  0.8519806039999978  0.2478221559999980
  0.2860357590000007  0.1246092649999966  0.2065184639999984
  0.3770927659999970  0.3067232810000036  0.3304295419999974
  0.4681497739999969  0.4888372959999998  0.4543406199999964
  0.1949787510000007  0.9424952500000003  0.0826073850000029
  0.1342524940000018  0.1574727360000026  0.4535731980000008
  0.0431954869999984  0.9753587209999992  0.3296621189999982
  0.8610814720000022  0.6111306909999996  0.0818399630000002
  0.9521384789999985  0.7932447060000030  0.2057510409999992
  0.5884528099999997  0.0658733679999983  0.1644473480000030
  0.6795098170000031  0.2479873830000017  0.2883584269999986
  0.7705668250000031  0.4301013979999979  0.4122695049999976
  0.4973958019999998  0.8837593530000021  0.0405362699999969
  0.2247671410000009  0.3385020289999972  0.1231436560000034
  0.3158241479999973  0.5206160440000005  0.2470547340000024
  0.4068811559999972  0.7027300600000004  0.3709658120000014
  0.4979381630000006  0.8848440749999966  0.4948768900000005
  0.4948630820000020  0.2151239120000028  0.0413036930000032
  0.5859200900000019  0.3972379269999990  0.1652147710000023
  0.6769770969999982  0.5793519420000024  0.2891258490000013
  0.7680341049999981  0.7614659569999986  0.4130369270000003
  0.4043484359999994  0.0340946190000011  0.3717332350000007
  0.4954054430000028  0.2162086339999973  0.4956443129999997
  0.1311774130000032  0.4877525739999982  0.0000000000000000
  0.2222344199999995  0.6698665890000015  0.1239110779999990
  0.3132914279999994  0.8519806039999978  0.2478221559999980
  0.0406627659999970  0.3067232810000036  0.3304295419999974
  0.1317197739999969  0.4888372959999998  0.4543406199999964
  0.9496057590000007  0.1246092649999966  0.2065184639999984
  0.8585487510000007  0.9424952500000003  0.0826073850000029
 
  0.00000000E+00  0.00000000E+00  0.00000000E+00
  0.00000000E+00  0.00000000E+00  0.00000000E+00
  0.00000000E+00  0.00000000E+00  0.00000000E+00
  0.00000000E+00  0.00000000E+00  0.00000000E+00
  0.00000000E+00  0.00000000E+00  0.00000000E+00
  0.00000000E+00  0.00000000E+00  0.00000000E+00
  0.00000000E+00  0.00000000E+00  0.00000000E+00
  0.00000000E+00  0.00000000E+00  0.00000000E+00
  0.00000000E+00  0.00000000E+00  0.00000000E+00
  0.00000000E+00  0.00000000E+00  0.00000000E+00
  0.00000000E+00  0.00000000E+00  0.00000000E+00
  0.00000000E+00  0.00000000E+00  0.00000000E+00
  0.00000000E+00  0.00000000E+00  0.00000000E+00
  0.00000000E+00  0.00000000E+00  0.00000000E+00
  0.00000000E+00  0.00000000E+00  0.00000000E+00
  0.00000000E+00  0.00000000E+00  0.00000000E+00
  0.00000000E+00  0.00000000E+00  0.00000000E+00
  0.00000000E+00  0.00000000E+00  0.00000000E+00
  0.00000000E+00  0.00000000E+00  0.00000000E+00
  0.00000000E+00  0.00000000E+00  0.00000000E+00
  0.00000000E+00  0.00000000E+00  0.00000000E+00
  0.00000000E+00  0.00000000E+00  0.00000000E+00
  0.00000000E+00  0.00000000E+00  0.00000000E+00
  0.00000000E+00  0.00000000E+00  0.00000000E+00
  0.00000000E+00  0.00000000E+00  0.00000000E+00
  0.00000000E+00  0.00000000E+00  0.00000000E+00
  0.00000000E+00  0.00000000E+00  0.00000000E+00
  0.00000000E+00  0.00000000E+00  0.00000000E+00
  0.00000000E+00  0.00000000E+00  0.00000000E+00
  0.00000000E+00  0.00000000E+00  0.00000000E+00
  0.00000000E+00  0.00000000E+00  0.00000000E+00
  0.00000000E+00  0.00000000E+00  0.00000000E+00
  0.00000000E+00  0.00000000E+00  0.00000000E+00
  0.00000000E+00  0.00000000E+00  0.00000000E+00
  0.00000000E+00  0.00000000E+00  0.00000000E+00
  0.00000000E+00  0.00000000E+00  0.00000000E+00
  0.00000000E+00  0.00000000E+00  0.00000000E+00
  0.00000000E+00  0.00000000E+00  0.00000000E+00
  0.00000000E+00  0.00000000E+00  0.00000000E+00
  0.00000000E+00  0.00000000E+00  0.00000000E+00
  0.00000000E+00  0.00000000E+00  0.00000000E+00
  0.00000000E+00  0.00000000E+00  0.00000000E+00
  0.00000000E+00  0.00000000E+00  0.00000000E+00
  0.00000000E+00  0.00000000E+00  0.00000000E+00
  0.00000000E+00  0.00000000E+00  0.00000000E+00
  0.00000000E+00  0.00000000E+00  0.00000000E+00
  0.00000000E+00  0.00000000E+00  0.00000000E+00
  0.00000000E+00  0.00000000E+00  0.00000000E+00
  0.00000000E+00  0.00000000E+00  0.00000000E+00
  0.00000000E+00  0.00000000E+00  0.00000000E+00
  0.00000000E+00  0.00000000E+00  0.00000000E+00
  0.00000000E+00  0.00000000E+00  0.00000000E+00
  0.00000000E+00  0.00000000E+00  0.00000000E+00
  0.00000000E+00  0.00000000E+00  0.00000000E+00
  0.00000000E+00  0.00000000E+00  0.00000000E+00
  0.00000000E+00  0.00000000E+00  0.00000000E+00
  0.00000000E+00  0.00000000E+00  0.00000000E+00
  0.00000000E+00  0.00000000E+00  0.00000000E+00
  0.00000000E+00  0.00000000E+00  0.00000000E+00
  0.00000000E+00  0.00000000E+00  0.00000000E+00
  0.00000000E+00  0.00000000E+00  0.00000000E+00
  0.00000000E+00  0.00000000E+00  0.00000000E+00
  0.00000000E+00  0.00000000E+00  0.00000000E+00
  0.00000000E+00  0.00000000E+00  0.00000000E+00
  0.00000000E+00  0.00000000E+00  0.00000000E+00
  0.00000000E+00  0.00000000E+00  0.00000000E+00
  0.00000000E+00  0.00000000E+00  0.00000000E+00
  0.00000000E+00  0.00000000E+00  0.00000000E+00
  0.00000000E+00  0.00000000E+00  0.00000000E+00
  0.00000000E+00  0.00000000E+00  0.00000000E+00
  0.00000000E+00  0.00000000E+00  0.00000000E+00
  0.00000000E+00  0.00000000E+00  0.00000000E+00
  0.00000000E+00  0.00000000E+00  0.00000000E+00
  0.00000000E+00  0.00000000E+00  0.00000000E+00
  0.00000000E+00  0.00000000E+00  0.00000000E+00
  0.00000000E+00  0.00000000E+00  0.00000000E+00
