Type_026 Type_126                       
   1.00000000000000     
    11.2564630381999997    0.0000000000000000    0.0000000000000000
     0.0000000000000000    9.5784099999999999    0.0000000000000000
     0.0000000000000000    0.0000000000000000   17.1924924047000012
   Ty   Ty
    26    26
Direct
  0.4393349899979597  0.4638879969953251  0.1628337709973167
  0.4928604613965106  0.4585674834445399  0.3298618217594580
  0.1678126505181581  0.9569714580081694  0.0940447369723998
  0.2122771966994463  0.9719954692480286  0.2395826858108094
  0.4393349899979597  0.1996819970015906  0.1628337709973167
  0.4600623267562511  0.1537224365630649  0.3073925494744003
  0.1581496794382673  0.6264026817185737  0.1399852624708515
  0.2954433404270986  0.5573799739413943  0.2569877618437744
  0.1306397029963620  0.3317849969984579  0.1391328760015114
  0.1840445196123781  0.3321701113754756  0.3009802516583022
  0.4562961357905664  0.8481131085326297  0.0944337217072828
  0.4065656619996147  0.8317849969984579  0.2288389949978651
  0.2676249830587736  0.7820459623883309  0.3325615309934307
  0.9393349899979597  0.4638879969953251  0.1628337709973167
  0.9724972697330045  0.4829672991968366  0.3212568419858712
  0.6612385972610326  0.9709615992737852  0.0952488716733342
  0.7081199231632382  0.9738065080947678  0.2335993463811050
  0.9393349899979597  0.1996819970015906  0.1628337709973167
  0.9913453534943102  0.2143514379213229  0.3244148113146892
  0.6556055886077061  0.6877120563851378  0.0993031998684089
  0.7200168544679926  0.6881823962536586  0.2426395920965803
  0.6306397029963620  0.3317849969984579  0.1391328760015114
  0.6824916370025633  0.3317849969984579  0.3185451150004752
  0.9871890880100977  0.7204274073358761  0.0879413623289835
  0.9023405592085680  0.8316673332108380  0.2139289629637702
  0.0708277591988136  0.7040019032595168  0.2772953441931847
  0.0749615508207597  0.1468384264298592  0.0856513622072299
  0.1114890379989788  0.1635699970036768  0.2389385289986805
  0.0704864356865400  0.3568523224731450  0.3942764140728627
  0.3355630629960302  0.6635699970036768  0.1492324090018826
  0.4212003893150253  0.6695856579641060  0.3197997617376842
  0.0510328361005179  0.4999984644111066  0.0706857703289003
  0.1114890379989788  0.4999999970036768  0.2389385289986805
  0.3355630629960302  0.9999999970036768  0.1492324090018826
  0.3546403158214773  0.9705997541658817  0.3191273460850894
  0.3132913344122628  0.3325853631657054  0.1115884457320178
  0.3678888029967027  0.3317849969984579  0.2691183590015811
  0.1476758451263791  0.7671955072919232  0.0381722269611444
  0.0919628440023317  0.8317849969984579  0.1794122389989710
  0.5685885971357010  0.1572589548265313  0.0800940869703979
  0.6114890379989788  0.1635699970036768  0.2389385289986805
  0.5420470112053692  0.2745547301170035  0.3887340296321966
  0.8355630629960302  0.6635699970036768  0.1492324090018826
  0.8875912015785090  0.6822360798504121  0.3052321564769400
  0.5671511495782298  0.5013412958518160  0.0782355695578119
  0.6114890379989788  0.4999999970036768  0.2389385289986805
  0.6516776131282001  0.5029795231985261  0.3856112921293260
  0.8355630629960302  0.9999999970036768  0.1492324090018826
  0.8135336302462903  0.3288749040289574  0.1128043728999870
  0.8678888029967027  0.3317849969984579  0.2691183590015811
  0.5933121904842977  0.8278661516264165  0.0182801722927692
  0.5919628440023317  0.8317849969984579  0.1794122389989710
 
  0.00000000E+00  0.00000000E+00  0.00000000E+00
  0.00000000E+00  0.00000000E+00  0.00000000E+00
  0.00000000E+00  0.00000000E+00  0.00000000E+00
  0.00000000E+00  0.00000000E+00  0.00000000E+00
  0.00000000E+00  0.00000000E+00  0.00000000E+00
  0.00000000E+00  0.00000000E+00  0.00000000E+00
  0.00000000E+00  0.00000000E+00  0.00000000E+00
  0.00000000E+00  0.00000000E+00  0.00000000E+00
  0.00000000E+00  0.00000000E+00  0.00000000E+00
  0.00000000E+00  0.00000000E+00  0.00000000E+00
  0.00000000E+00  0.00000000E+00  0.00000000E+00
  0.00000000E+00  0.00000000E+00  0.00000000E+00
  0.00000000E+00  0.00000000E+00  0.00000000E+00
  0.00000000E+00  0.00000000E+00  0.00000000E+00
  0.00000000E+00  0.00000000E+00  0.00000000E+00
  0.00000000E+00  0.00000000E+00  0.00000000E+00
  0.00000000E+00  0.00000000E+00  0.00000000E+00
  0.00000000E+00  0.00000000E+00  0.00000000E+00
  0.00000000E+00  0.00000000E+00  0.00000000E+00
  0.00000000E+00  0.00000000E+00  0.00000000E+00
  0.00000000E+00  0.00000000E+00  0.00000000E+00
  0.00000000E+00  0.00000000E+00  0.00000000E+00
  0.00000000E+00  0.00000000E+00  0.00000000E+00
  0.00000000E+00  0.00000000E+00  0.00000000E+00
  0.00000000E+00  0.00000000E+00  0.00000000E+00
  0.00000000E+00  0.00000000E+00  0.00000000E+00
  0.00000000E+00  0.00000000E+00  0.00000000E+00
  0.00000000E+00  0.00000000E+00  0.00000000E+00
  0.00000000E+00  0.00000000E+00  0.00000000E+00
  0.00000000E+00  0.00000000E+00  0.00000000E+00
  0.00000000E+00  0.00000000E+00  0.00000000E+00
  0.00000000E+00  0.00000000E+00  0.00000000E+00
  0.00000000E+00  0.00000000E+00  0.00000000E+00
  0.00000000E+00  0.00000000E+00  0.00000000E+00
  0.00000000E+00  0.00000000E+00  0.00000000E+00
  0.00000000E+00  0.00000000E+00  0.00000000E+00
  0.00000000E+00  0.00000000E+00  0.00000000E+00
  0.00000000E+00  0.00000000E+00  0.00000000E+00
  0.00000000E+00  0.00000000E+00  0.00000000E+00
  0.00000000E+00  0.00000000E+00  0.00000000E+00
  0.00000000E+00  0.00000000E+00  0.00000000E+00
  0.00000000E+00  0.00000000E+00  0.00000000E+00
  0.00000000E+00  0.00000000E+00  0.00000000E+00
  0.00000000E+00  0.00000000E+00  0.00000000E+00
  0.00000000E+00  0.00000000E+00  0.00000000E+00
  0.00000000E+00  0.00000000E+00  0.00000000E+00
  0.00000000E+00  0.00000000E+00  0.00000000E+00
  0.00000000E+00  0.00000000E+00  0.00000000E+00
  0.00000000E+00  0.00000000E+00  0.00000000E+00
  0.00000000E+00  0.00000000E+00  0.00000000E+00
  0.00000000E+00  0.00000000E+00  0.00000000E+00
  0.00000000E+00  0.00000000E+00  0.00000000E+00
