Structure 3 made from 021-5.xsd file
1.0
       11.2351097480        3.6905792348        0.0000000000
        0.0000000000       11.8257374459        0.0000000000
        0.0000000000        0.0000000000       19.1935896625
   Ni    S
   36   36
Direct
    -0.075911773     0.193817547     0.114259528
     0.060673734     0.057232039     0.244673624
     0.197259241    -0.079353483     0.375087720
     0.116120798     0.133887972     0.045347155
     0.252706305    -0.002697536     0.175761251
     0.389291812    -0.139283058     0.306175347
     0.056191223     0.325920543     0.114259528
     0.192776730     0.189335035     0.244673624
     0.329362237     0.052749513     0.375087720
     0.424088227     0.193817547     0.114259528
     0.560673734     0.057232039     0.244673624
     0.697259241    -0.079353483     0.375087720
     0.616120798     0.133887972     0.045347155
     0.752706305    -0.002697536     0.175761251
     0.889291812    -0.139283058     0.306175347
     0.556191223     0.325920543     0.114259528
     0.692776730     0.189335035     0.244673624
     0.829362237     0.052749513     0.375087720
    -0.075911773     0.693817547     0.114259528
     0.060673734     0.557232039     0.244673624
     0.197259241     0.420646517     0.375087720
     0.116120798     0.633887972     0.045347155
     0.252706305     0.497302464     0.175761251
     0.389291812     0.360716942     0.306175347
     0.056191223     0.825920543     0.114259528
     0.192776730     0.689335035     0.244673624
     0.329362237     0.552749513     0.375087720
     0.424088227     0.693817547     0.114259528
     0.560673734     0.557232039     0.244673624
     0.697259241     0.420646517     0.375087720
     0.616120798     0.633887972     0.045347155
     0.752706305     0.497302464     0.175761251
     0.889291812     0.360716942     0.306175347
     0.556191223     0.825920543     0.114259528
     0.692776730     0.689335035     0.244673624
     0.829362237     0.552749513     0.375087720
     0.241325247     0.176898518     0.130414096
     0.377910754     0.040313010     0.260828192
     0.514496261    -0.096272512     0.391242288
    -0.139787341     0.389796095     0.087750429
    -0.003201819     0.253210588     0.218164525
     0.269969196    -0.019960441     0.478992717
    -0.063475270     0.145269030     0.000000000
     0.073110252     0.008683523     0.130414096
     0.209695759    -0.127901985     0.260828192
     0.604739725     0.313484025     0.000000000
     0.741325247     0.176898518     0.130414096
     0.877910754     0.040313010     0.260828192
     0.360212659     0.389796095     0.087750429
     0.496798181     0.253210588     0.218164525
     0.633383688     0.116625081     0.348578621
     0.769969196    -0.019960441     0.478992717
     0.436524730     0.145269030     0.000000000
     0.573110252     0.008683523     0.130414096
     0.709695759    -0.127901985     0.260828192
     0.104739725     0.813484025     0.000000000
     0.241325247     0.676898518     0.130414096
     0.377910754     0.540313010     0.260828192
     0.514496261     0.403727488     0.391242288
    -0.139787341     0.889796095     0.087750429
    -0.003201819     0.753210588     0.218164525
     0.133383688     0.616625081     0.348578621
     0.073110252     0.508683523     0.130414096
     0.209695759     0.372098015     0.260828192
     0.741325247     0.676898518     0.130414096
     0.877910754     0.540313010     0.260828192
     1.014496261     0.403727488     0.391242288
     0.496798181     0.753210588     0.218164525
     0.436524730     0.645269030     0.000000000
     0.573110252     0.508683523     0.130414096
     0.709695759     0.372098015     0.260828192
     0.846281266     0.235512493     0.391242288
