# Custom category
SYSTEM="Millerite NiS"

# Initialization
LREAL=A
ISMEAR=0
LWAVE=.False.
LCHARG=.False.
NWRITE=2
NELM=100

# Parallelization
NSIM=4
NCORE=6

# Accuracy
ENCUT=450

