Type_026 Type_126                       
   1.00000000000000     
    11.2564630381999997    0.0000000000000000    0.0000000000000000
     0.0000000000000000    9.5784099999999999    0.0000000000000000
     0.0000000000000000    0.0000000000000000   17.1924924047000012
   Ty   Ty
    26    26
Direct
  0.4393349899979597  0.4638879969953251  0.1628337709973167
  0.4600757044841828  0.4991222112229465  0.3095148393054004
  0.1602709212012385  0.9677356383053137  0.0939312126587595
  0.2024175494174045  0.9774594925358144  0.2342203244887955
  0.4393349899979597  0.1996819970015906  0.1628337709973167
  0.5001178254834997  0.2342672755499109  0.3226866155708379
  0.1585179924941471  0.6911178844192278  0.0968185801696180
  0.2069500075907058  0.6863660167501706  0.2391534214478384
  0.1306397029963620  0.3317849969984579  0.1391328760015114
  0.1824916370025633  0.3317849969984579  0.3185451150004752
  0.4559880996349648  0.8341795647294248  0.0950851476806847
  0.3773275502692144  0.8324649669934772  0.2231307948259627
  0.5260524947494432  0.7360717751380434  0.2999934251586467
  0.9393349899979597  0.4638879969953251  0.1628337709973167
  0.9841096811411347  0.4684099891422449  0.3233397945535970
  0.6607874776080109  0.9770909507005854  0.1015240338988193
  0.7152609639970393  0.9638879969953251  0.2525398899994897
  0.9393349899979597  0.1996819970015906  0.1628337709973167
  0.9846355347578495  0.1953233764998572  0.3235085846761550
  0.6598888638191482  0.6857904245172222  0.1019320039089209
  0.7152609639970393  0.6996819970015906  0.2525398899994897
  0.6306397029963620  0.3317849969984579  0.1391328760015114
  0.6898501735800764  0.3333929358317320  0.2909504447320614
  0.9509975497251588  0.8322416504513797  0.0950323429925319
  0.9065656619996147  0.8317849969984579  0.2288389949978651
  0.8371699481640107  0.8316532263496725  0.3650818353355305
  0.0693130205333787  0.1564381073059096  0.0809219965058503
  0.1114890379989788  0.1635699970036768  0.2389385289986805
  0.1216441461365960  0.1946266720050644  0.3984124179416497
  0.3355630629960302  0.6635699970036768  0.1492324090018826
  0.3518281095544964  0.6821882024469588  0.3164849381182506
  0.0676843984486482  0.5041686871411883  0.0797256652517291
  0.1114890379989788  0.4999999970036768  0.2389385289986805
  0.1193788687209931  0.4654137455903467  0.3995302321682104
  0.3355630629960302  0.9999999970036768  0.1492324090018826
  0.3139377895621038  0.3309770198602919  0.1128165807576451
  0.3678888029967027  0.3317849969984579  0.2691183590015811
  0.0868878802587361  0.8282838165520161  0.0173731281113376
  0.0919628440023317  0.8317849969984579  0.1794122389989710
  0.5666410944232041  0.1596652343447431  0.0793648467936521
  0.6114890379989788  0.1635699970036768  0.2389385289986805
  0.8355630629960302  0.6635699970036768  0.1492324090018826
  0.8851345314498786  0.6555255914186162  0.3071225954740839
  0.5668628311260662  0.5027918893741230  0.0784551249201826
  0.6114890379989788  0.4999999970036768  0.2389385289986805
  0.8355630629960302  0.9999999970036768  0.1492324090018826
  0.8851019804879314  0.0081755374848242  0.3069258397727950
  0.8143432487711380  0.3316897461374069  0.1129467590963813
  0.8678888029967027  0.3317849969984579  0.2691183590015811
  0.5993060274001252  0.8315583104502764  0.0226996092022915
  0.5919628440023317  0.8317849969984579  0.1794122389989710
  0.6608278695587018  0.8443827883646691  0.3485178713507509
 
  0.00000000E+00  0.00000000E+00  0.00000000E+00
  0.00000000E+00  0.00000000E+00  0.00000000E+00
  0.00000000E+00  0.00000000E+00  0.00000000E+00
  0.00000000E+00  0.00000000E+00  0.00000000E+00
  0.00000000E+00  0.00000000E+00  0.00000000E+00
  0.00000000E+00  0.00000000E+00  0.00000000E+00
  0.00000000E+00  0.00000000E+00  0.00000000E+00
  0.00000000E+00  0.00000000E+00  0.00000000E+00
  0.00000000E+00  0.00000000E+00  0.00000000E+00
  0.00000000E+00  0.00000000E+00  0.00000000E+00
  0.00000000E+00  0.00000000E+00  0.00000000E+00
  0.00000000E+00  0.00000000E+00  0.00000000E+00
  0.00000000E+00  0.00000000E+00  0.00000000E+00
  0.00000000E+00  0.00000000E+00  0.00000000E+00
  0.00000000E+00  0.00000000E+00  0.00000000E+00
  0.00000000E+00  0.00000000E+00  0.00000000E+00
  0.00000000E+00  0.00000000E+00  0.00000000E+00
  0.00000000E+00  0.00000000E+00  0.00000000E+00
  0.00000000E+00  0.00000000E+00  0.00000000E+00
  0.00000000E+00  0.00000000E+00  0.00000000E+00
  0.00000000E+00  0.00000000E+00  0.00000000E+00
  0.00000000E+00  0.00000000E+00  0.00000000E+00
  0.00000000E+00  0.00000000E+00  0.00000000E+00
  0.00000000E+00  0.00000000E+00  0.00000000E+00
  0.00000000E+00  0.00000000E+00  0.00000000E+00
  0.00000000E+00  0.00000000E+00  0.00000000E+00
  0.00000000E+00  0.00000000E+00  0.00000000E+00
  0.00000000E+00  0.00000000E+00  0.00000000E+00
  0.00000000E+00  0.00000000E+00  0.00000000E+00
  0.00000000E+00  0.00000000E+00  0.00000000E+00
  0.00000000E+00  0.00000000E+00  0.00000000E+00
  0.00000000E+00  0.00000000E+00  0.00000000E+00
  0.00000000E+00  0.00000000E+00  0.00000000E+00
  0.00000000E+00  0.00000000E+00  0.00000000E+00
  0.00000000E+00  0.00000000E+00  0.00000000E+00
  0.00000000E+00  0.00000000E+00  0.00000000E+00
  0.00000000E+00  0.00000000E+00  0.00000000E+00
  0.00000000E+00  0.00000000E+00  0.00000000E+00
  0.00000000E+00  0.00000000E+00  0.00000000E+00
  0.00000000E+00  0.00000000E+00  0.00000000E+00
  0.00000000E+00  0.00000000E+00  0.00000000E+00
  0.00000000E+00  0.00000000E+00  0.00000000E+00
  0.00000000E+00  0.00000000E+00  0.00000000E+00
  0.00000000E+00  0.00000000E+00  0.00000000E+00
  0.00000000E+00  0.00000000E+00  0.00000000E+00
  0.00000000E+00  0.00000000E+00  0.00000000E+00
  0.00000000E+00  0.00000000E+00  0.00000000E+00
  0.00000000E+00  0.00000000E+00  0.00000000E+00
  0.00000000E+00  0.00000000E+00  0.00000000E+00
  0.00000000E+00  0.00000000E+00  0.00000000E+00
  0.00000000E+00  0.00000000E+00  0.00000000E+00
  0.00000000E+00  0.00000000E+00  0.00000000E+00
