Structure 2 made from -211-6.xsd file
1.0
        9.4251025535        3.5732980427        0.0000000000
        0.0000000000       10.0797329849        0.0000000000
        0.0000000000       -0.0000000000       20.5020095760
   Ni    S
   36   36
Direct
     0.246790381     0.945220300     0.000000000
     0.397058894     0.794951787     0.128060734
     0.547327406     0.644683275     0.256121468
     0.697595919     0.494414762     0.384182202
     0.847864431     0.344146250     0.512242936
     0.113815065     0.411528950     0.170747645
     0.264083577     0.261260437     0.298808379
     0.414352089     0.110991925     0.426869113
     0.963546552     0.561797462     0.042686911
     0.131108260     0.727569087     0.469556025
     0.680302723     0.178374625     0.085373823
     0.830571235     0.028106112     0.213434557
     0.980839748     0.877837600     0.341495291
     0.357357051     0.570447630     0.094226320
     0.507625564     0.420179117     0.222287054
     0.657894076     0.269910605     0.350347788
     0.808162588     0.119642093     0.478408522
     0.074113222     0.187024792     0.136913231
     0.224381734     0.036756280     0.264973965
     0.374650247     0.886487767     0.393034699
     0.923844710     0.337293305     0.008852497
     0.091406418     0.503064930     0.435721610
     0.790869393     0.803601955     0.179600142
     0.941137905     0.653333442     0.307660876
     0.032666746     0.159343935     0.444574107
     0.581861209     0.610149472     0.060391905
     0.732129721     0.459880960     0.188452639
     0.882398233     0.309612448     0.316513373
     0.298617379     0.226726635     0.103078817
     0.448885892     0.076458122     0.231139551
     0.599154404     0.926189610     0.359200285
     0.749422917     0.775921098     0.487261019
     0.015373550     0.843303797     0.145765728
     0.165642063     0.693035285     0.273826462
     0.315910575     0.542766773     0.401887196
     0.865105038     0.993572310     0.017704994
     0.036604833     0.955193848     0.502466694
     0.585799295     0.405999386     0.118284492
     0.736067808     0.255730873     0.246345226
     0.886336320     0.105462361     0.374405960
     0.152286954     0.172845060     0.032910670
     0.302555466     0.022576548     0.160971403
     0.452823979     0.872308036     0.289032137
     0.603092491     0.722039523     0.417092871
     0.019311637     0.639153711     0.203658315
     0.169580149     0.488885198     0.331719049
     0.319848662     0.338616686     0.459779783
     0.869043125     0.789422223     0.075597581
     0.486085619     0.842143062     0.033307231
     0.636354131     0.691874550     0.161367965
     0.786622643     0.541606038     0.289428699
     0.936891156     0.391337525     0.417489433
     0.202841789     0.458720225     0.075994142
     0.353110302     0.308451712     0.204054876
     0.503378814     0.158183200     0.332115610
     0.653647327     0.007914688     0.460176344
     0.069866473     0.925028875     0.246741788
     0.220134985     0.774760363     0.374802521
     0.370403497     0.624491850     0.502863255
     0.919597960     0.075297387     0.118681054
     0.200210454     0.791588227     0.076390704
     0.350478967     0.641319714     0.204451438
     0.500747479     0.491051202     0.332512172
     0.651015991     0.340782689     0.460572906
     0.067235137     0.257896877     0.247138349
     0.217503650     0.107628364     0.375199083
     0.367772162     0.957359852     0.503259817
     0.916966625     0.408165389     0.119077615
     0.483454283     0.175011064     0.033703792
     0.633722796     0.024742552     0.161764526
     0.783991308     0.874474039     0.289825260
     0.934259821     0.724205527     0.417885994
