Structure 10 made from -112-6.xsd file  
   1.00000000000000     
    16.8846940542000006    0.0000000000000000    0.0000000000000000
     0.0000000000000000    9.5784099999999999    0.0000000000000000
     0.0000000000000000    0.0000000000000000   16.5480325497000003
   Ni   S 
    37    37
Direct
  0.7800463049999991  0.1452969569999993  0.1178236279999965
  0.8146142619999992  0.1452969569999993  0.3042230419999967
  0.2627623260000007  0.6452969569999993  0.0246239220000035
  0.2973302839999974  0.6452969569999993  0.2110233350000001
  0.4697582760000003  0.1452969569999993  0.2420899039999966
  0.9524742979999985  0.6452969569999993  0.1488901970000001
  0.9870422549999986  0.6452969569999993  0.3352896110000003
  0.1249022909999979  0.1452969569999993  0.1799567659999965
  0.1594702479999981  0.1452969569999993  0.3663561799999968
  0.6076183119999996  0.6452969569999993  0.0867570590000000
  0.6421862689999998  0.6452969569999993  0.2731564730000002
  0.9075827739999980  0.0131939569999986  0.0931997069999966
  0.9421507309999981  0.0131939569999986  0.2795991200000003
  0.3902987960000033  0.5131939569999986  0.0000000000000000
  0.4248667530000034  0.5131939569999986  0.1863994129999966
  0.4594347099999965  0.5131939569999986  0.3727988269999969
  0.5627267879999991  0.0131939569999986  0.0310665689999965
  0.5972947460000029  0.0131939569999986  0.2174659820000002
  0.0800107669999974  0.5131939569999986  0.1242662760000002
  0.1145787239999976  0.5131939569999986  0.3106656889999968
  0.2524387599999969  0.0131939569999986  0.1553328440000001
  0.2870067169999970  0.0131939569999986  0.3417322580000004
  0.7351547809999985  0.5131939569999986  0.0621331380000001
  0.7697227379999987  0.5131939569999986  0.2485325509999967
  0.9075827739999980  0.2773999570000001  0.0931997069999966
  0.9421507309999981  0.2773999570000001  0.2795991200000003
  0.3902987960000033  0.7773999570000001  0.0000000000000000
  0.4248667530000034  0.7773999570000001  0.1863994129999966
  0.4594347099999965  0.7773999570000001  0.3727988269999969
  0.5627267879999991  0.2773999570000001  0.0310665689999965
  0.5972947460000029  0.2773999570000001  0.2174659820000002
  0.0800107669999974  0.7773999570000001  0.1242662760000002
  0.1145787239999976  0.7773999570000001  0.3106656889999968
  0.2524387599999969  0.2773999570000001  0.1553328440000001
  0.2870067169999970  0.2773999570000001  0.3417322580000004
  0.7351547809999985  0.7773999570000001  0.0621331380000001
  0.7697227379999987  0.7773999570000001  0.2485325509999967
  0.0260291609999967  0.1452969569999993  0.3646319850000026
  0.9914612039999966  0.1452969569999993  0.1782325719999989
  0.4741772249999983  0.6452969569999993  0.0850328650000023
  0.5087451819999984  0.6452969569999993  0.2714322779999989
  0.6466052179999977  0.1452969569999993  0.1160994339999988
  0.6811731749999979  0.1452969569999993  0.3024988470000025
  0.1293212389999994  0.6452969569999993  0.0228997270000022
  0.1638891970000032  0.6452969569999993  0.2092991410000025
  0.1984571540000033  0.6452969569999993  0.3956985539999991
  0.3017492319999988  0.1452969569999993  0.0539662959999987
  0.3363171889999990  0.1452969569999993  0.2403657090000024
  0.8190332109999972  0.6452969569999993  0.1471660030000024
  0.8536011679999973  0.6452969569999993  0.3335654159999990
  0.7944930959999965  0.3135119570000029  0.0231883359999969
  0.8290610529999967  0.3135119570000029  0.2095877490000007
  0.3117770739999983  0.8135119570000029  0.1163880419999970
  0.3463450309999985  0.8135119570000029  0.3027874559999972
  0.4842050669999978  0.3135119570000029  0.1474546110000006
  0.5187730239999979  0.3135119570000029  0.3338540250000008
  0.0014890460000032  0.8135119570000029  0.2406543179999971
  0.9669210879999994  0.8135119570000029  0.0542549039999969
  0.1393490809999989  0.3135119570000029  0.0853214730000005
  0.1739170379999990  0.3135119570000029  0.2717208870000007
  0.6566330599999972  0.8135119570000029  0.1785211799999971
  0.6912010169999974  0.8135119570000029  0.3649205930000008
  0.3117770739999983  0.4770819570000029  0.1163880419999970
  0.3463450309999985  0.4770819570000029  0.3027874559999972
  0.7944930959999965  0.9770819570000029  0.0231883359999969
  0.8290610529999967  0.9770819570000029  0.2095877490000007
  0.0014890460000032  0.4770819570000029  0.2406543179999971
  0.9669210879999994  0.4770819570000029  0.0542549039999969
  0.4842050669999978  0.9770819570000029  0.1474546110000006
  0.5187730239999979  0.9770819570000029  0.3338540250000008
  0.6566330599999972  0.4770819570000029  0.1785211799999971
  0.6912010169999974  0.4770819570000029  0.3649205930000008
  0.1393490809999989  0.9770819570000029  0.0853214730000005
  0.1739170379999990  0.9770819570000029  0.2717208870000007
 
  0.00000000E+00  0.00000000E+00  0.00000000E+00
  0.00000000E+00  0.00000000E+00  0.00000000E+00
  0.00000000E+00  0.00000000E+00  0.00000000E+00
  0.00000000E+00  0.00000000E+00  0.00000000E+00
  0.00000000E+00  0.00000000E+00  0.00000000E+00
  0.00000000E+00  0.00000000E+00  0.00000000E+00
  0.00000000E+00  0.00000000E+00  0.00000000E+00
  0.00000000E+00  0.00000000E+00  0.00000000E+00
  0.00000000E+00  0.00000000E+00  0.00000000E+00
  0.00000000E+00  0.00000000E+00  0.00000000E+00
  0.00000000E+00  0.00000000E+00  0.00000000E+00
  0.00000000E+00  0.00000000E+00  0.00000000E+00
  0.00000000E+00  0.00000000E+00  0.00000000E+00
  0.00000000E+00  0.00000000E+00  0.00000000E+00
  0.00000000E+00  0.00000000E+00  0.00000000E+00
  0.00000000E+00  0.00000000E+00  0.00000000E+00
  0.00000000E+00  0.00000000E+00  0.00000000E+00
  0.00000000E+00  0.00000000E+00  0.00000000E+00
  0.00000000E+00  0.00000000E+00  0.00000000E+00
  0.00000000E+00  0.00000000E+00  0.00000000E+00
  0.00000000E+00  0.00000000E+00  0.00000000E+00
  0.00000000E+00  0.00000000E+00  0.00000000E+00
  0.00000000E+00  0.00000000E+00  0.00000000E+00
  0.00000000E+00  0.00000000E+00  0.00000000E+00
  0.00000000E+00  0.00000000E+00  0.00000000E+00
  0.00000000E+00  0.00000000E+00  0.00000000E+00
  0.00000000E+00  0.00000000E+00  0.00000000E+00
  0.00000000E+00  0.00000000E+00  0.00000000E+00
  0.00000000E+00  0.00000000E+00  0.00000000E+00
  0.00000000E+00  0.00000000E+00  0.00000000E+00
  0.00000000E+00  0.00000000E+00  0.00000000E+00
  0.00000000E+00  0.00000000E+00  0.00000000E+00
  0.00000000E+00  0.00000000E+00  0.00000000E+00
  0.00000000E+00  0.00000000E+00  0.00000000E+00
  0.00000000E+00  0.00000000E+00  0.00000000E+00
  0.00000000E+00  0.00000000E+00  0.00000000E+00
  0.00000000E+00  0.00000000E+00  0.00000000E+00
  0.00000000E+00  0.00000000E+00  0.00000000E+00
  0.00000000E+00  0.00000000E+00  0.00000000E+00
  0.00000000E+00  0.00000000E+00  0.00000000E+00
  0.00000000E+00  0.00000000E+00  0.00000000E+00
  0.00000000E+00  0.00000000E+00  0.00000000E+00
  0.00000000E+00  0.00000000E+00  0.00000000E+00
  0.00000000E+00  0.00000000E+00  0.00000000E+00
  0.00000000E+00  0.00000000E+00  0.00000000E+00
  0.00000000E+00  0.00000000E+00  0.00000000E+00
  0.00000000E+00  0.00000000E+00  0.00000000E+00
  0.00000000E+00  0.00000000E+00  0.00000000E+00
  0.00000000E+00  0.00000000E+00  0.00000000E+00
  0.00000000E+00  0.00000000E+00  0.00000000E+00
  0.00000000E+00  0.00000000E+00  0.00000000E+00
  0.00000000E+00  0.00000000E+00  0.00000000E+00
  0.00000000E+00  0.00000000E+00  0.00000000E+00
  0.00000000E+00  0.00000000E+00  0.00000000E+00
  0.00000000E+00  0.00000000E+00  0.00000000E+00
  0.00000000E+00  0.00000000E+00  0.00000000E+00
  0.00000000E+00  0.00000000E+00  0.00000000E+00
  0.00000000E+00  0.00000000E+00  0.00000000E+00
  0.00000000E+00  0.00000000E+00  0.00000000E+00
  0.00000000E+00  0.00000000E+00  0.00000000E+00
  0.00000000E+00  0.00000000E+00  0.00000000E+00
  0.00000000E+00  0.00000000E+00  0.00000000E+00
  0.00000000E+00  0.00000000E+00  0.00000000E+00
  0.00000000E+00  0.00000000E+00  0.00000000E+00
  0.00000000E+00  0.00000000E+00  0.00000000E+00
  0.00000000E+00  0.00000000E+00  0.00000000E+00
  0.00000000E+00  0.00000000E+00  0.00000000E+00
  0.00000000E+00  0.00000000E+00  0.00000000E+00
  0.00000000E+00  0.00000000E+00  0.00000000E+00
  0.00000000E+00  0.00000000E+00  0.00000000E+00
  0.00000000E+00  0.00000000E+00  0.00000000E+00
  0.00000000E+00  0.00000000E+00  0.00000000E+00
  0.00000000E+00  0.00000000E+00  0.00000000E+00
  0.00000000E+00  0.00000000E+00  0.00000000E+00
