Type_037 Type_137 
1.0
1.1452783670500001e+01 0.0000000000000000e+00 0.0000000000000000e+00 
-4.0053990701000002e+00 8.7007307979000004e+00 0.0000000000000000e+00 
0.0000000000000000e+00 0.0000000000000000e+00 2.0642891374400001e+01 
Type_0 Type_1 
37 37 
Cartesian
   6.3498294782    0.6471180538    7.3054051848
   8.0708222517    1.4393805677    4.8022905359
   0.8181414023    8.6615603836    9.4320786596
  -2.8082971717    6.9757802645    5.6366620856
  -1.0873044057    7.7680427697    3.1335474367
   5.8031248847    0.3770847419    1.4590135108
   4.8897666867    6.6231710055    9.5062393446
   6.9234937368    6.1835177507    8.1397767344
   1.2329581463    2.6757688114    8.4288246718
   1.7707661570    3.8114491635    6.4710336352
   3.4917589230    4.6037116687    3.9679189863
   5.0302792771    5.2076365416    1.8325405930
   2.5123357812    0.2734965619    8.4858440121
   4.2333285432    1.0657590758    5.9827293632
   5.9543213206    1.8580215810    3.4796147144
   4.7745636263    2.7858143898    1.5616756388
  -3.2038053408    8.1866837917    1.8108716151
   3.0623921694    5.7012009127    7.9967212437
   4.8069928017    6.6021587726    6.8171009128
   6.5279855677    7.3944212778    4.3139862640
  -0.3457347741    4.2300901768    5.1483578136
   1.3752579879    5.0223526907    2.6452431647
   7.5852139474    2.6394675561    8.8165564213
   9.3860561304    3.4378276716    7.6514724624
   3.7702341121    2.2190107817    9.4298774964
   5.2915790115    2.9459033350    7.3054051848
   7.0125717849    3.7381658488    4.8022905359
   8.6895620476    4.4823227514    3.0930060461
   0.1388514317    0.5738347478    5.6366620856
   1.8598441977    1.3660972530    3.1335474367
   3.0527043470    0.6319474163    0.7945006428
   8.3398119455    0.3833736494    9.8950373662
   5.8652432701    8.4823030318    8.1397767344
  -0.5459981303    6.4498896066    8.4075874024
   0.7125156903    6.1102344447    6.4710336352
   2.4335084562    6.9024969499    3.9679189863
   3.7589150127    7.5643532498    1.8143098542
   1.9126171297    1.5756350011    9.9883586625
   3.1253583171    2.3294667204    7.4938413209
   4.8463510791    3.1217292343    4.9907266721
   6.5673438451    3.9139917394    2.4876120232
  -0.0234828544    0.4222604821    3.5479015225
   1.1942530491    1.3900084861    1.1849520209
   3.6990225757    7.8658664173    8.3282128705
   5.4200153376    8.6581289311    5.8250982217
  -1.4537050116    5.4937978214    6.6594697713
   0.2672877504    6.2860603353    4.1563551224
   1.7781659800    6.9830600217    1.9420173534
   8.1380751216    4.6460157977    8.7729871394
  -0.6613368368    4.3225535301    2.9422273373
   5.8204311374    1.7963849688    9.1780870458
   7.5414238994    2.5886474827    6.6749723969
   9.1108760853    3.2577513159    4.6664521523
   2.3886963236    0.2165788868    5.0062292977
   4.1096890856    1.0088414007    2.5031146488
   4.7965804769    1.4493439810   20.6406446344
  -3.3376955085    8.1250471709    7.5093439465
   6.1426784120    8.0691443772   10.1485899567
   1.2413678087    4.9607160698    8.3437154962
   2.9623605707    5.7529785837    5.8406008473
   4.6833533367    6.5452410889    3.3374861985
   4.7534223464    6.5661043899    0.3836747076
   6.1938874882    0.1945423719    4.9907266721
   7.5442576105    0.7868635266    2.6714236401
  -0.8857835598    7.6726599832    9.9845724178
   0.4674956561    8.1030106559    7.4938413209
  -2.9642391577    6.5232045740    3.3219835728
  -1.4482232358    7.3799595375    1.1396332886
   5.0465589848    4.9386795549    8.3282128705
   6.7675517468    5.7309420688    5.8250982217
  -0.1061686024    2.5666109591    6.6594697713
   1.6148241596    3.3588734730    4.1563551224
   3.2039729154    4.1921913913    1.9255430042
   9.5007530608    1.7835217069    8.9066469160
