Structure 31 made from 012-1.xsd file   
   1.00000000000000     
     9.5784099999999999    0.0000000000000000    0.0000000000000000
     0.0000000000000000   11.2564630381999997    0.0000000000000000
     0.0000000000000000    0.0000000000000000   17.7113588996999987
   Ni   S 
    30    30
Direct
  0.0807671809999988  0.4311970509999981  0.0132029000000031
  0.0807671809999988  0.3793451169999997  0.1873591339999976
  0.0807671809999988  0.3274931830000014  0.3615153679999992
  0.5807671809999988  0.1552710919999996  0.1002810170000004
  0.5807671809999988  0.1034191569999976  0.2744372510000019
  0.2128701809999995  0.1880404189999965  0.1643525730000022
  0.2128701809999995  0.1361884849999981  0.3385088069999966
  0.7128701809999995  0.4639663789999986  0.0772744559999978
  0.7128701809999995  0.4121144439999966  0.2514306899999994
  0.7128701809999995  0.3602625099999983  0.4255869240000010
  0.3449731810000003  0.4311970509999981  0.0132029000000031
  0.3449731810000003  0.3793451169999997  0.1873591339999976
  0.3449731810000003  0.3274931830000014  0.3615153679999992
  0.8449731810000003  0.1552710919999996  0.1002810170000004
  0.8449731810000003  0.1034191569999976  0.2744372510000019
  0.0807671809999988  0.9311970509999981  0.0132029000000031
  0.0807671809999988  0.8793451169999997  0.1873591339999976
  0.0807671809999988  0.8274931830000014  0.3615153679999992
  0.5807671809999988  0.6552710919999996  0.1002810170000004
  0.5807671809999988  0.6034191569999976  0.2744372510000019
  0.2128701809999995  0.6880404190000036  0.1643525730000022
  0.2128701809999995  0.6361884849999981  0.3385088069999966
  0.7128701809999995  0.9639663789999986  0.0772744559999978
  0.7128701809999995  0.9121144439999966  0.2514306899999994
  0.7128701809999995  0.8602625099999983  0.4255869240000010
  0.3449731810000003  0.9311970509999981  0.0132029000000031
  0.3449731810000003  0.8793451169999997  0.1873591339999976
  0.3449731810000003  0.8274931830000014  0.3615153679999992
  0.8449731810000003  0.6552710919999996  0.1002810170000004
  0.8449731810000003  0.6034191569999976  0.2744372510000019
  0.3810851810000031  0.2590430179999998  0.0870781169999972
  0.3810851810000031  0.2071910840000015  0.2612343509999988
  0.8810851810000031  0.4831170439999966  0.1741562340000016
  0.8810851810000031  0.4312651099999982  0.3483124669999995
  0.8810851810000031  0.0349689929999997  0.0000000000000000
  0.2128701809999995  0.4507913030000026  0.2905300409999967
  0.2128701809999995  0.0026432530000022  0.1163738079999987
  0.7128701809999995  0.2785692120000007  0.0292956910000015
  0.7128701809999995  0.2267172780000024  0.2034519250000031
  0.7128701809999995  0.1748653439999970  0.3776081580000010
  0.0446551810000031  0.2590430179999998  0.0870781169999972
  0.0446551810000031  0.2071910840000015  0.2612343509999988
  0.5446551810000031  0.4831170439999966  0.1741562340000016
  0.5446551810000031  0.0349689929999997  0.0000000000000000
  0.3810851810000031  0.7590430179999998  0.0870781169999972
  0.3810851810000031  0.7071910840000015  0.2612343509999988
  0.3810851810000031  0.6553391500000032  0.4353905839999967
  0.8810851810000031  0.9831170439999966  0.1741562340000016
  0.8810851810000031  0.9312651099999982  0.3483124669999995
  0.2128701809999995  0.9507913030000026  0.2905300409999967
  0.2128701809999995  0.5026432530000022  0.1163738079999987
  0.7128701809999995  0.7785692120000007  0.0292956910000015
  0.7128701809999995  0.7267172780000024  0.2034519250000031
  0.7128701809999995  0.6748653439999970  0.3776081580000010
  0.0446551810000031  0.7590430179999998  0.0870781169999972
  0.0446551810000031  0.7071910840000015  0.2612343509999988
  0.0446551810000031  0.6553391500000032  0.4353905839999967
  0.5446551810000031  0.9831170439999966  0.1741562340000016
  0.5446551810000031  0.9312651099999982  0.3483124669999995
  0.5446551810000031  0.5349689929999997  0.0000000000000000
 
  0.00000000E+00  0.00000000E+00  0.00000000E+00
  0.00000000E+00  0.00000000E+00  0.00000000E+00
  0.00000000E+00  0.00000000E+00  0.00000000E+00
  0.00000000E+00  0.00000000E+00  0.00000000E+00
  0.00000000E+00  0.00000000E+00  0.00000000E+00
  0.00000000E+00  0.00000000E+00  0.00000000E+00
  0.00000000E+00  0.00000000E+00  0.00000000E+00
  0.00000000E+00  0.00000000E+00  0.00000000E+00
  0.00000000E+00  0.00000000E+00  0.00000000E+00
  0.00000000E+00  0.00000000E+00  0.00000000E+00
  0.00000000E+00  0.00000000E+00  0.00000000E+00
  0.00000000E+00  0.00000000E+00  0.00000000E+00
  0.00000000E+00  0.00000000E+00  0.00000000E+00
  0.00000000E+00  0.00000000E+00  0.00000000E+00
  0.00000000E+00  0.00000000E+00  0.00000000E+00
  0.00000000E+00  0.00000000E+00  0.00000000E+00
  0.00000000E+00  0.00000000E+00  0.00000000E+00
  0.00000000E+00  0.00000000E+00  0.00000000E+00
  0.00000000E+00  0.00000000E+00  0.00000000E+00
  0.00000000E+00  0.00000000E+00  0.00000000E+00
  0.00000000E+00  0.00000000E+00  0.00000000E+00
  0.00000000E+00  0.00000000E+00  0.00000000E+00
  0.00000000E+00  0.00000000E+00  0.00000000E+00
  0.00000000E+00  0.00000000E+00  0.00000000E+00
  0.00000000E+00  0.00000000E+00  0.00000000E+00
  0.00000000E+00  0.00000000E+00  0.00000000E+00
  0.00000000E+00  0.00000000E+00  0.00000000E+00
  0.00000000E+00  0.00000000E+00  0.00000000E+00
  0.00000000E+00  0.00000000E+00  0.00000000E+00
  0.00000000E+00  0.00000000E+00  0.00000000E+00
  0.00000000E+00  0.00000000E+00  0.00000000E+00
  0.00000000E+00  0.00000000E+00  0.00000000E+00
  0.00000000E+00  0.00000000E+00  0.00000000E+00
  0.00000000E+00  0.00000000E+00  0.00000000E+00
  0.00000000E+00  0.00000000E+00  0.00000000E+00
  0.00000000E+00  0.00000000E+00  0.00000000E+00
  0.00000000E+00  0.00000000E+00  0.00000000E+00
  0.00000000E+00  0.00000000E+00  0.00000000E+00
  0.00000000E+00  0.00000000E+00  0.00000000E+00
  0.00000000E+00  0.00000000E+00  0.00000000E+00
  0.00000000E+00  0.00000000E+00  0.00000000E+00
  0.00000000E+00  0.00000000E+00  0.00000000E+00
  0.00000000E+00  0.00000000E+00  0.00000000E+00
  0.00000000E+00  0.00000000E+00  0.00000000E+00
  0.00000000E+00  0.00000000E+00  0.00000000E+00
  0.00000000E+00  0.00000000E+00  0.00000000E+00
  0.00000000E+00  0.00000000E+00  0.00000000E+00
  0.00000000E+00  0.00000000E+00  0.00000000E+00
  0.00000000E+00  0.00000000E+00  0.00000000E+00
  0.00000000E+00  0.00000000E+00  0.00000000E+00
  0.00000000E+00  0.00000000E+00  0.00000000E+00
  0.00000000E+00  0.00000000E+00  0.00000000E+00
  0.00000000E+00  0.00000000E+00  0.00000000E+00
  0.00000000E+00  0.00000000E+00  0.00000000E+00
  0.00000000E+00  0.00000000E+00  0.00000000E+00
  0.00000000E+00  0.00000000E+00  0.00000000E+00
  0.00000000E+00  0.00000000E+00  0.00000000E+00
  0.00000000E+00  0.00000000E+00  0.00000000E+00
  0.00000000E+00  0.00000000E+00  0.00000000E+00
  0.00000000E+00  0.00000000E+00  0.00000000E+00
