Type_036 Type_136                       
   1.00000000000000     
    10.0797329848999997    0.0000000000000000    0.0000000000000000
     3.5732980426999998    9.4251025535000004    0.0000000000000000
     0.0000000000000000    0.0000000000000000   20.5020095759999990
   Ty   Ty
    36    36
Direct
  0.2404694460313834  0.9624183508572557  0.0652279507402795
  0.3970588939958688  0.7949517870039173  0.1280607340010960
  0.5473274059983737  0.6446832749998705  0.2561214680021848
  0.6975959189992977  0.4944147619984847  0.3841822019983994
  0.8249078338557538  0.3417206342125141  0.4875314037556961
  0.1138150649985690  0.4115289500016814  0.1707476450014909
  0.2640835769974856  0.2612604370002956  0.2988083789977054
  0.4143520889999905  0.1109919249962488  0.4268691129988014
  0.9655896431372213  0.6057676196403605  0.1079681245145494
  0.0812211690757820  0.8088777601967791  0.4525619721279170
  0.5467697890533643  0.2232892784194149  0.1509325277421780
  0.8305712349956664  0.0281061120021064  0.2134345570017899
  0.9808397479964270  0.8778376000086681  0.3414952909980045
  0.3652941367356348  0.5548067625384263  0.1132915405628836
  0.5076255639997598  0.4201791170038121  0.2222870539985919
  0.6578940760022718  0.2699106049997653  0.3503477879996879
  0.7790435538183615  0.1256695638139433  0.4601590490253145
  0.0741132219979477  0.1870247920056229  0.1369132309978980
  0.2243817340004526  0.0367562800015762  0.2649739649989939
  0.3746502470013766  0.8864877670001903  0.3930346990000828
  0.0684761647796321  0.3807056983870751  0.0489366306595826
  0.0894266406051329  0.5102541188492538  0.4246992838835055
  0.7908693930006550  0.8036019550033870  0.1796001419982929
  0.9411379049995645  0.6533334420020012  0.3076608759993888
  0.0249331637958292  0.1657800995300320  0.4291652201889491
  0.5820848389024036  0.5998441656956359  0.0811752541442701
  0.7321297209968662  0.4598809599997864  0.1884526389999763
  0.8823982329956124  0.3096124480063480  0.3165133730010723
  0.2986173789950541  0.2267266350015973  0.1030788169991794
  0.4488858919959782  0.0764581220002114  0.2311395510002754
  0.5991544039947243  0.9261896100067730  0.3592002850013714
  0.7284146101613302  0.7990470745385494  0.4511134792623821
  0.0153735500040852  0.8433037970020223  0.1457657279995814
  0.1656420629986854  0.6930352849979755  0.2738264620006703
  0.3159105749974245  0.5427667730045371  0.4018871960017663
  0.7389413828698039  0.0281487770338913  0.0960111180908001
  0.9884507855767168  0.0157395358573496  0.4904127554583653
  0.5857992950028930  0.4059993859991451  0.1182844920011590
  0.7360678079938978  0.2557308729977663  0.2463452260022478
  0.8863363199926440  0.1054623610043279  0.3744059599984624
  0.1616648725736454  0.1684868607727026  0.0409111051865807
  0.3025554660020049  0.0225765479995772  0.1609714030015539
  0.4528239789928392  0.8723080360061388  0.2890321369977684
  0.5912860415986785  0.7296465382486730  0.3999506830100614
  0.0193116370009463  0.6391537110079497  0.2036583150018529
  0.1695801489998630  0.4888851980065638  0.3317190489980675
  0.3015700876744702  0.3427699118775465  0.4297393425283431
  0.8615469178204833  0.8158521569343051  0.0836652676285894
  0.4440733443238685  0.7810355548721759  0.0334766205066757
  0.6363541309975673  0.6918745499992909  0.1613679650005082
  0.7866226429963135  0.5416060380058525  0.2894286990015971
  0.9368911559972375  0.3913375250044666  0.4174894329978116
  0.2071494329675190  0.4672303413998051  0.0881604387267387
  0.3531103019966793  0.3084517119997159  0.2040548760009031
  0.5033788139991842  0.1581831999956691  0.3321156100019991
  0.6356314920372412  0.0163850885572216  0.4482419608591854
  0.0698664729956207  0.9250288750080955  0.2467417880012022
  0.2201349849981327  0.7747603630040416  0.3748025210023940
  0.1952180044788463  0.6066972297586872  0.4838644309781586
  0.9195979599948672  0.0752973870015268  0.1186810540001062
  0.2074688726995646  0.7752766829986939  0.0924112999497311
  0.3504789670009174  0.6413197140072882  0.2044514379998574
  0.5007474789935031  0.4910512020032414  0.3325121720009463
  0.6454826908348750  0.3444479631146748  0.4447082619731546
  0.0672351370016102  0.2578968770050523  0.2471383490002523
  0.2175036500025342  0.1076283640036664  0.3751990830013483
  0.3925417801065905  0.9563833104237887  0.4826308522742622
  0.9169666249929449  0.4081653889984906  0.1190776149991564
  0.5137887319453966  0.1348954411247121  0.0665574732926331
  0.6396560875953696  0.0088954089172049  0.1819644548974892
  0.7839913080007221  0.8744740390054773  0.2898252600006472
  0.9342598209953152  0.7242055270014305  0.4178859940017432
 
  0.00000000E+00  0.00000000E+00  0.00000000E+00
  0.00000000E+00  0.00000000E+00  0.00000000E+00
  0.00000000E+00  0.00000000E+00  0.00000000E+00
  0.00000000E+00  0.00000000E+00  0.00000000E+00
  0.00000000E+00  0.00000000E+00  0.00000000E+00
  0.00000000E+00  0.00000000E+00  0.00000000E+00
  0.00000000E+00  0.00000000E+00  0.00000000E+00
  0.00000000E+00  0.00000000E+00  0.00000000E+00
  0.00000000E+00  0.00000000E+00  0.00000000E+00
  0.00000000E+00  0.00000000E+00  0.00000000E+00
  0.00000000E+00  0.00000000E+00  0.00000000E+00
  0.00000000E+00  0.00000000E+00  0.00000000E+00
  0.00000000E+00  0.00000000E+00  0.00000000E+00
  0.00000000E+00  0.00000000E+00  0.00000000E+00
  0.00000000E+00  0.00000000E+00  0.00000000E+00
  0.00000000E+00  0.00000000E+00  0.00000000E+00
  0.00000000E+00  0.00000000E+00  0.00000000E+00
  0.00000000E+00  0.00000000E+00  0.00000000E+00
  0.00000000E+00  0.00000000E+00  0.00000000E+00
  0.00000000E+00  0.00000000E+00  0.00000000E+00
  0.00000000E+00  0.00000000E+00  0.00000000E+00
  0.00000000E+00  0.00000000E+00  0.00000000E+00
  0.00000000E+00  0.00000000E+00  0.00000000E+00
  0.00000000E+00  0.00000000E+00  0.00000000E+00
  0.00000000E+00  0.00000000E+00  0.00000000E+00
  0.00000000E+00  0.00000000E+00  0.00000000E+00
  0.00000000E+00  0.00000000E+00  0.00000000E+00
  0.00000000E+00  0.00000000E+00  0.00000000E+00
  0.00000000E+00  0.00000000E+00  0.00000000E+00
  0.00000000E+00  0.00000000E+00  0.00000000E+00
  0.00000000E+00  0.00000000E+00  0.00000000E+00
  0.00000000E+00  0.00000000E+00  0.00000000E+00
  0.00000000E+00  0.00000000E+00  0.00000000E+00
  0.00000000E+00  0.00000000E+00  0.00000000E+00
  0.00000000E+00  0.00000000E+00  0.00000000E+00
  0.00000000E+00  0.00000000E+00  0.00000000E+00
  0.00000000E+00  0.00000000E+00  0.00000000E+00
  0.00000000E+00  0.00000000E+00  0.00000000E+00
  0.00000000E+00  0.00000000E+00  0.00000000E+00
  0.00000000E+00  0.00000000E+00  0.00000000E+00
  0.00000000E+00  0.00000000E+00  0.00000000E+00
  0.00000000E+00  0.00000000E+00  0.00000000E+00
  0.00000000E+00  0.00000000E+00  0.00000000E+00
  0.00000000E+00  0.00000000E+00  0.00000000E+00
  0.00000000E+00  0.00000000E+00  0.00000000E+00
  0.00000000E+00  0.00000000E+00  0.00000000E+00
  0.00000000E+00  0.00000000E+00  0.00000000E+00
  0.00000000E+00  0.00000000E+00  0.00000000E+00
  0.00000000E+00  0.00000000E+00  0.00000000E+00
  0.00000000E+00  0.00000000E+00  0.00000000E+00
  0.00000000E+00  0.00000000E+00  0.00000000E+00
  0.00000000E+00  0.00000000E+00  0.00000000E+00
  0.00000000E+00  0.00000000E+00  0.00000000E+00
  0.00000000E+00  0.00000000E+00  0.00000000E+00
  0.00000000E+00  0.00000000E+00  0.00000000E+00
  0.00000000E+00  0.00000000E+00  0.00000000E+00
  0.00000000E+00  0.00000000E+00  0.00000000E+00
  0.00000000E+00  0.00000000E+00  0.00000000E+00
  0.00000000E+00  0.00000000E+00  0.00000000E+00
  0.00000000E+00  0.00000000E+00  0.00000000E+00
  0.00000000E+00  0.00000000E+00  0.00000000E+00
  0.00000000E+00  0.00000000E+00  0.00000000E+00
  0.00000000E+00  0.00000000E+00  0.00000000E+00
  0.00000000E+00  0.00000000E+00  0.00000000E+00
  0.00000000E+00  0.00000000E+00  0.00000000E+00
  0.00000000E+00  0.00000000E+00  0.00000000E+00
  0.00000000E+00  0.00000000E+00  0.00000000E+00
  0.00000000E+00  0.00000000E+00  0.00000000E+00
  0.00000000E+00  0.00000000E+00  0.00000000E+00
  0.00000000E+00  0.00000000E+00  0.00000000E+00
  0.00000000E+00  0.00000000E+00  0.00000000E+00
  0.00000000E+00  0.00000000E+00  0.00000000E+00
