Structure 19 made from -121-6.xsd file  
   1.00000000000000     
     9.4251025535000004    3.5732980426999998    0.0000000000000000
     0.0000000000000000   10.0797329848999997    0.0000000000000000
     0.0000000000000000    0.0000000000000000   20.5101398818000007
   Ni   S 
    36    36
Direct
  0.3743321509999973  0.7513621960000023  0.0951123469999970
  0.5246006630000011  0.6010936830000020  0.2231223169999978
  0.6748691760000014  0.4508251709999982  0.3511322869999987
  0.8251376879999981  0.3005566590000015  0.4791422569999995
  0.6074864759999983  0.1848745369999989  0.0097723660000000
  0.7577549889999986  0.0346060250000022  0.1377823369999973
  0.0582920129999991  0.7340689999999981  0.3938022769999989
  0.9080235010000024  0.8843375129999984  0.2657923069999981
  0.1411778260000034  0.3178498540000021  0.1804523269999976
  0.2914463380000001  0.1675813419999983  0.3084622969999984
  0.4417148510000004  0.0173128289999980  0.4364722669999992
  0.9909093139999996  0.4681183670000024  0.0524423569999968
  0.0099400029999970  0.1157543440000026  0.4115002529999998
  0.5591344660000033  0.5665598810000034  0.0274703420000009
  0.7094029780000000  0.4162913689999996  0.1554803120000017
  0.8596714910000003  0.2660228559999993  0.2834902829999990
  0.0928258160000013  0.6995351979999995  0.1981503020000019
  0.2430943279999980  0.5492666849999992  0.3261602729999993
  0.3933628409999983  0.3989981730000025  0.4541702430000001
  0.9425573030000010  0.8498037100000033  0.0701403320000011
  0.3259801410000023  0.1330475390000032  0.1128103220000014
  0.4762486529999990  0.9827790269999994  0.2408202920000022
  0.6265171659999993  0.8325105150000027  0.3688302629999995
  0.7767856780000031  0.6822420020000024  0.4968402330000004
  0.0496418460000001  0.3402585010000010  0.4453212550000032
  0.5988363080000028  0.7910640380000018  0.0612913439999971
  0.7491048210000031  0.6407955259999980  0.1893013150000016
  0.8993733329999998  0.4905270140000013  0.3173112850000024
  0.9822591459999970  0.0743078679999982  0.1039613339999974
  0.1325276580000008  0.9240393549999979  0.2319713050000018
  0.2827961710000011  0.7737708430000012  0.3599812750000027
  0.4330646829999978  0.6235023300000009  0.4879912450000035
  0.2154134709999980  0.5078202090000019  0.0186213539999969
  0.3656819830000018  0.3575516969999981  0.1466313239999977
  0.5159504960000021  0.2072831839999978  0.2746412950000021
  0.6662190079999988  0.0570146720000011  0.4026512650000029
  0.0638215769999988  0.2620847689999977  0.3413599200000021
  0.2140900899999991  0.1118162570000010  0.4693698909999995
  0.7632845529999983  0.5626217940000018  0.0853399800000005
  0.9135530650000021  0.4123532819999980  0.2133499500000013
  0.1467073900000031  0.8458656230000017  0.1280099700000008
  0.2969759030000034  0.6955971109999979  0.2560199400000016
  0.4472444150000001  0.5453285990000012  0.3840299100000024
  0.5975129269999968  0.3950600860000009  0.5120398809999998
  0.9964388779999993  0.9961341360000020  0.0000000000000000
  0.3798617149999970  0.2793779650000019  0.0426699900000003
  0.5301302279999973  0.1291094529999981  0.1706799600000011
  0.6803987400000011  0.9788409399999978  0.2986899300000019
  0.8306672519999978  0.8285724280000011  0.4266999000000027
  0.3776957110000012  0.9482106350000024  0.0434627980000002
  0.5279642240000015  0.7979421229999986  0.1714727689999975
  0.6782327359999982  0.6476736110000019  0.2994827389999983
  0.8285012489999986  0.4974050980000015  0.4274927089999991
  0.7611185490000025  0.2314544649999988  0.0861327889999970
  0.9113870609999992  0.0811859519999985  0.2141427589999978
  0.0616555739999995  0.9309174400000018  0.3421527289999986
  0.1445413860000002  0.5146982939999987  0.1288027789999973
  0.2948098990000005  0.3644297809999983  0.2568127489999981
  0.4450784109999972  0.2141612690000017  0.3848227189999989
  0.9942728740000035  0.6649668060000025  0.0007928079999999
  0.3271408760000014  0.6623354709999987  0.0003964040000000
  0.4774093879999981  0.5120669590000020  0.1284063740000008
  0.6276779009999984  0.3617984460000017  0.2564163449999981
  0.7779464130000022  0.2115299339999979  0.3844263149999989
  0.9282149249999989  0.0612614209999975  0.5124362849999997
  0.0111007380000032  0.6450422750000016  0.2990863349999984
  0.1613692509999964  0.4947737629999978  0.4270963049999992
  0.7105637129999991  0.9455792999999986  0.0430663940000002
  0.8608322259999994  0.7953107880000019  0.1710763640000010
  0.0939865510000004  0.2288231289999985  0.0857363840000005
  0.2442550629999971  0.0785546170000018  0.2137463540000013
  0.3945235759999974  0.9282861049999980  0.3417563249999986
 
  0.00000000E+00  0.00000000E+00  0.00000000E+00
  0.00000000E+00  0.00000000E+00  0.00000000E+00
  0.00000000E+00  0.00000000E+00  0.00000000E+00
  0.00000000E+00  0.00000000E+00  0.00000000E+00
  0.00000000E+00  0.00000000E+00  0.00000000E+00
  0.00000000E+00  0.00000000E+00  0.00000000E+00
  0.00000000E+00  0.00000000E+00  0.00000000E+00
  0.00000000E+00  0.00000000E+00  0.00000000E+00
  0.00000000E+00  0.00000000E+00  0.00000000E+00
  0.00000000E+00  0.00000000E+00  0.00000000E+00
  0.00000000E+00  0.00000000E+00  0.00000000E+00
  0.00000000E+00  0.00000000E+00  0.00000000E+00
  0.00000000E+00  0.00000000E+00  0.00000000E+00
  0.00000000E+00  0.00000000E+00  0.00000000E+00
  0.00000000E+00  0.00000000E+00  0.00000000E+00
  0.00000000E+00  0.00000000E+00  0.00000000E+00
  0.00000000E+00  0.00000000E+00  0.00000000E+00
  0.00000000E+00  0.00000000E+00  0.00000000E+00
  0.00000000E+00  0.00000000E+00  0.00000000E+00
  0.00000000E+00  0.00000000E+00  0.00000000E+00
  0.00000000E+00  0.00000000E+00  0.00000000E+00
  0.00000000E+00  0.00000000E+00  0.00000000E+00
  0.00000000E+00  0.00000000E+00  0.00000000E+00
  0.00000000E+00  0.00000000E+00  0.00000000E+00
  0.00000000E+00  0.00000000E+00  0.00000000E+00
  0.00000000E+00  0.00000000E+00  0.00000000E+00
  0.00000000E+00  0.00000000E+00  0.00000000E+00
  0.00000000E+00  0.00000000E+00  0.00000000E+00
  0.00000000E+00  0.00000000E+00  0.00000000E+00
  0.00000000E+00  0.00000000E+00  0.00000000E+00
  0.00000000E+00  0.00000000E+00  0.00000000E+00
  0.00000000E+00  0.00000000E+00  0.00000000E+00
  0.00000000E+00  0.00000000E+00  0.00000000E+00
  0.00000000E+00  0.00000000E+00  0.00000000E+00
  0.00000000E+00  0.00000000E+00  0.00000000E+00
  0.00000000E+00  0.00000000E+00  0.00000000E+00
  0.00000000E+00  0.00000000E+00  0.00000000E+00
  0.00000000E+00  0.00000000E+00  0.00000000E+00
  0.00000000E+00  0.00000000E+00  0.00000000E+00
  0.00000000E+00  0.00000000E+00  0.00000000E+00
  0.00000000E+00  0.00000000E+00  0.00000000E+00
  0.00000000E+00  0.00000000E+00  0.00000000E+00
  0.00000000E+00  0.00000000E+00  0.00000000E+00
  0.00000000E+00  0.00000000E+00  0.00000000E+00
  0.00000000E+00  0.00000000E+00  0.00000000E+00
  0.00000000E+00  0.00000000E+00  0.00000000E+00
  0.00000000E+00  0.00000000E+00  0.00000000E+00
  0.00000000E+00  0.00000000E+00  0.00000000E+00
  0.00000000E+00  0.00000000E+00  0.00000000E+00
  0.00000000E+00  0.00000000E+00  0.00000000E+00
  0.00000000E+00  0.00000000E+00  0.00000000E+00
  0.00000000E+00  0.00000000E+00  0.00000000E+00
  0.00000000E+00  0.00000000E+00  0.00000000E+00
  0.00000000E+00  0.00000000E+00  0.00000000E+00
  0.00000000E+00  0.00000000E+00  0.00000000E+00
  0.00000000E+00  0.00000000E+00  0.00000000E+00
  0.00000000E+00  0.00000000E+00  0.00000000E+00
  0.00000000E+00  0.00000000E+00  0.00000000E+00
  0.00000000E+00  0.00000000E+00  0.00000000E+00
  0.00000000E+00  0.00000000E+00  0.00000000E+00
  0.00000000E+00  0.00000000E+00  0.00000000E+00
  0.00000000E+00  0.00000000E+00  0.00000000E+00
  0.00000000E+00  0.00000000E+00  0.00000000E+00
  0.00000000E+00  0.00000000E+00  0.00000000E+00
  0.00000000E+00  0.00000000E+00  0.00000000E+00
  0.00000000E+00  0.00000000E+00  0.00000000E+00
  0.00000000E+00  0.00000000E+00  0.00000000E+00
  0.00000000E+00  0.00000000E+00  0.00000000E+00
  0.00000000E+00  0.00000000E+00  0.00000000E+00
  0.00000000E+00  0.00000000E+00  0.00000000E+00
  0.00000000E+00  0.00000000E+00  0.00000000E+00
  0.00000000E+00  0.00000000E+00  0.00000000E+00
