Type_036 Type_136 
1.0
1.0079732984900000e+01 0.0000000000000000e+00 0.0000000000000000e+00 
3.5732980426999998e+00 9.4251025535000004e+00 0.0000000000000000e+00 
0.0000000000000000e+00 0.0000000000000000e+00 2.0683503555200002e+01 
Type_0 Type_1 
36 36 
Cartesian
   5.3403154245    8.9721900736    1.8214857246
   6.8405238777    7.2641253771    2.8751225286
   7.8205595795    6.0762060003    5.2510047951
   8.7982718832    4.6599098547    7.8765071823
   9.5658826826    3.2445483725   10.0285002762
   2.6177410398    3.8787025669    3.5006698634
   3.5954533370    2.4624064308    6.1261722506
   4.5731656443    1.0461102946    8.7516746378
  11.9928158332    5.6653415685    2.1577273439
   3.7865091098    7.3888670823    9.3364160319
   6.3068203328    2.1278550235    3.0599928971
   8.4723677858    0.2649030068    4.3758373189
  13.0233781257    8.2737094242    7.0013397268
   5.4185465270    4.8680919316    2.5525717484
   6.6181553448    3.9602312874    4.5573312982
   7.5958676419    2.5439351513    7.1828337061
   8.3883882266    1.1554351247    9.4796886641
   1.4153367986    1.7627278635    2.8069963665
   2.3930491058    0.3464317273    5.4324987744
   6.9440594422    8.3552381353    8.0580011616
   6.9438123552    6.8082734828    9.7837969716
   1.9303706379    3.3939696565    0.9567293755
   2.6654553540    4.7997013230    8.6577582786
  10.8432615872    7.5740308570    3.6821638427
  11.8209738809    6.1577347114    6.3076662299
   0.8409349525    1.5596036226    8.8041133393
   9.0229638192    4.3344252293    3.8636578220
  10.0006761229    2.9181290837    6.4891602092
   3.8201452831    2.1369218053    2.1133228903
   4.7978575767    0.7206256598    4.7388252775
   9.3488679166    8.7294320771    7.3643276854
  10.3186127674    7.7027586403    9.3465010867
   3.1683370733    7.9482247894    2.9884903458
   4.1460493805    6.5319286532    5.6139927537
   5.1237616741    5.1156325076    8.2394951409
   7.5454362370    0.2308215334    1.9572495328
   3.5769742626    9.4146343840    9.9482543929
   7.3415811032    3.9475029368    2.6152936073
   8.3331695783    2.4102897230    5.0505721933
   9.3108818755    0.9939935868    7.6760745804
   2.2461789365    1.3788376279    0.9076196643
   3.1303510322    0.2127862991    3.3002372616
   7.6813613786    8.2215927070    5.9257396488
   8.6590736757    6.8052965708    8.5512420359
   2.4785428324    6.0240892831    4.1754047171
   3.4562551396    4.6077931469    6.8009071043
   4.1951384282    3.3079417957    8.8955278428
  11.5852387165    7.6453026906    1.7235962245
   6.9915796152    8.0536206409    1.0351864001
   8.8192040076    6.4325049670    3.4818746557
   9.8642659903    5.1046924612    5.9338699617
  10.8419782875    3.6883963250    8.5593723489
   3.6120854923    4.2945641494    1.6733768940
   4.6614474441    2.9071890373    4.1835350300
   5.6391597413    1.4908929011    6.8090374172
   6.4853519595    0.2880367007    9.1461013934
   4.0096392479    8.7184920307    5.0587024855
   4.9873515415    7.3021958851    7.6842048934
   5.1137291565    5.9930318836   10.1000318700
   9.5383618828    0.7096856133    2.4332000983
   4.7991048333    6.9689339003    2.0044525898
   5.8243608699    6.0445040929    4.1916653223
   6.8020731671    4.6282079567    6.8171677301
   7.7824001758    3.2057845602    9.1251844416
   1.5992546310    2.4307045328    5.0668327985
   2.5769669246    1.0144083872    7.6923351856
   7.4090237907    8.8602647919    9.9540436622
  10.7012753086    3.8470006690    2.4413304113
   5.6649430002    1.2605741805    1.3564593292
   6.4763720820    0.0913600057    3.7182751334
  11.0271794060    8.2420075168    5.9420002540
  12.0048917133    6.8257113807    8.5675026618
