Structure 9 made from -211-6.xsd file   
   1.00000000000000     
     9.4251025535000004    3.5732980426999998    0.0000000000000000
     0.0000000000000000   10.0797329848999997    0.0000000000000000
     0.0000000000000000    0.0000000000000000   20.5020095759999990
   Ni   S 
    36    36
Direct
  0.2467903809999967  0.9452203000000026  0.0000000000000000
  0.3970588939999971  0.7949517870000022  0.1280607340000017
  0.5473274060000008  0.6446832749999984  0.2561214680000035
  0.6975959190000012  0.4944147619999981  0.3841822019999981
  0.8478644309999979  0.3441462500000014  0.5122429359999998
  0.1138150649999972  0.4115289499999975  0.1707476449999987
  0.2640835770000010  0.2612604369999971  0.2988083790000005
  0.4143520889999976  0.1109919250000004  0.4268691130000022
  0.9635465519999968  0.5617974620000012  0.0426869109999970
  0.1311082599999978  0.7275690869999991  0.4695560250000028
  0.6803027229999969  0.1783746250000036  0.0853738229999976
  0.8305712350000007  0.0281061120000032  0.2134345569999994
  0.9808397480000011  0.8778375999999994  0.3414952910000011
  0.5076255640000014  0.4201791170000035  0.2222870539999988
  0.6578940759999981  0.2699106049999997  0.3503477880000005
  0.8081625880000018  0.1196420930000031  0.4784085220000023
  0.0741132220000011  0.1870247920000025  0.1369132310000012
  0.2243817339999978  0.0367562799999988  0.2649739650000029
  0.3746502469999982  0.8864877669999984  0.3930346989999975
  0.9238447099999973  0.3372933050000029  0.0088524969999995
  0.0914064179999983  0.5030649300000007  0.4357216100000016
  0.6406008800000009  0.9538704670000016  0.0515394079999965
  0.7908693930000013  0.8036019549999978  0.1796001419999982
  0.9411379049999979  0.6533334419999974  0.3076608759999999
  0.0326667459999967  0.1593439350000025  0.4445741070000011
  0.5818612090000030  0.6101494720000034  0.0603919050000030
  0.7321297209999997  0.4598809599999996  0.1884526389999976
  0.8823982330000035  0.3096124480000029  0.3165133729999994
  0.2986173789999995  0.2267266349999986  0.1030788169999965
  0.4488858919999998  0.0764581219999982  0.2311395509999983
  0.5991544039999965  0.9261896100000016  0.3592002850000000
  0.7494229169999969  0.7759210979999978  0.4872610190000017
  0.0153735499999996  0.8433037969999972  0.1457657280000006
  0.1656420630000000  0.6930352850000006  0.2738264620000024
  0.3159105749999966  0.5427667729999968  0.4018871959999970
  0.8651050380000029  0.9935723099999976  0.0177049939999989
  0.0366048329999984  0.9551938480000004  0.5024666939999989
  0.5857992950000011  0.4059993859999977  0.1182844920000008
  0.7360678080000014  0.2557308729999974  0.2463452260000025
  0.8863363199999981  0.1054623610000007  0.3744059599999972
  0.1522869539999974  0.1728450600000002  0.0329106699999997
  0.3025554660000012  0.0225765480000035  0.1609714029999978
  0.4528239790000015  0.8723080359999997  0.2890321369999995
  0.6030924909999982  0.7220395229999994  0.4170928710000013
  0.0193116370000013  0.6391537109999987  0.2036583149999984
  0.1695801489999980  0.4888851979999984  0.3317190490000002
  0.3198486619999983  0.3386166860000017  0.4597797830000019
  0.8690431249999975  0.7894222230000025  0.0755975809999967
  0.4860856190000007  0.8421430619999981  0.0333072310000020
  0.6363541309999974  0.6918745500000014  0.1613679649999966
  0.7866226430000012  0.5416060379999976  0.2894286989999983
  0.9368911560000015  0.3913375249999973  0.4174894330000001
  0.2028417889999972  0.4587202250000004  0.0759941419999990
  0.3531103019999975  0.3084517120000001  0.2040548760000007
  0.5033788140000013  0.1581832000000034  0.3321156100000024
  0.6536473270000016  0.0079146879999996  0.4601763439999971
  0.0698664729999976  0.9250288750000024  0.2467417880000013
  0.2201349850000014  0.7747603629999986  0.3748025209999994
  0.3704034969999981  0.6244918499999983  0.5028632550000012
  0.9195979599999973  0.0752973869999991  0.1186810539999996
  0.2002104540000005  0.7915882269999983  0.0763907039999978
  0.3504789670000008  0.6413197139999980  0.2044514379999995
  0.5007474789999975  0.4910512020000013  0.3325121720000013
  0.6510159910000013  0.3407826890000010  0.4605729060000030
  0.0672351369999973  0.2578968770000003  0.2471383489999965
  0.2175036499999976  0.1076283640000000  0.3751990829999983
  0.3677721620000014  0.9573598520000033  0.5032598170000000
  0.9169666250000006  0.4081653889999970  0.1190776150000019
  0.4834542830000004  0.1750110640000031  0.0337037919999972
  0.6337227960000007  0.0247425519999993  0.1617645259999989
  0.7839913079999974  0.8744740389999990  0.2898252600000006
  0.9342598209999977  0.7242055270000023  0.4178859940000024
 
  0.00000000E+00  0.00000000E+00  0.00000000E+00
  0.00000000E+00  0.00000000E+00  0.00000000E+00
  0.00000000E+00  0.00000000E+00  0.00000000E+00
  0.00000000E+00  0.00000000E+00  0.00000000E+00
  0.00000000E+00  0.00000000E+00  0.00000000E+00
  0.00000000E+00  0.00000000E+00  0.00000000E+00
  0.00000000E+00  0.00000000E+00  0.00000000E+00
  0.00000000E+00  0.00000000E+00  0.00000000E+00
  0.00000000E+00  0.00000000E+00  0.00000000E+00
  0.00000000E+00  0.00000000E+00  0.00000000E+00
  0.00000000E+00  0.00000000E+00  0.00000000E+00
  0.00000000E+00  0.00000000E+00  0.00000000E+00
  0.00000000E+00  0.00000000E+00  0.00000000E+00
  0.00000000E+00  0.00000000E+00  0.00000000E+00
  0.00000000E+00  0.00000000E+00  0.00000000E+00
  0.00000000E+00  0.00000000E+00  0.00000000E+00
  0.00000000E+00  0.00000000E+00  0.00000000E+00
  0.00000000E+00  0.00000000E+00  0.00000000E+00
  0.00000000E+00  0.00000000E+00  0.00000000E+00
  0.00000000E+00  0.00000000E+00  0.00000000E+00
  0.00000000E+00  0.00000000E+00  0.00000000E+00
  0.00000000E+00  0.00000000E+00  0.00000000E+00
  0.00000000E+00  0.00000000E+00  0.00000000E+00
  0.00000000E+00  0.00000000E+00  0.00000000E+00
  0.00000000E+00  0.00000000E+00  0.00000000E+00
  0.00000000E+00  0.00000000E+00  0.00000000E+00
  0.00000000E+00  0.00000000E+00  0.00000000E+00
  0.00000000E+00  0.00000000E+00  0.00000000E+00
  0.00000000E+00  0.00000000E+00  0.00000000E+00
  0.00000000E+00  0.00000000E+00  0.00000000E+00
  0.00000000E+00  0.00000000E+00  0.00000000E+00
  0.00000000E+00  0.00000000E+00  0.00000000E+00
  0.00000000E+00  0.00000000E+00  0.00000000E+00
  0.00000000E+00  0.00000000E+00  0.00000000E+00
  0.00000000E+00  0.00000000E+00  0.00000000E+00
  0.00000000E+00  0.00000000E+00  0.00000000E+00
  0.00000000E+00  0.00000000E+00  0.00000000E+00
  0.00000000E+00  0.00000000E+00  0.00000000E+00
  0.00000000E+00  0.00000000E+00  0.00000000E+00
  0.00000000E+00  0.00000000E+00  0.00000000E+00
  0.00000000E+00  0.00000000E+00  0.00000000E+00
  0.00000000E+00  0.00000000E+00  0.00000000E+00
  0.00000000E+00  0.00000000E+00  0.00000000E+00
  0.00000000E+00  0.00000000E+00  0.00000000E+00
  0.00000000E+00  0.00000000E+00  0.00000000E+00
  0.00000000E+00  0.00000000E+00  0.00000000E+00
  0.00000000E+00  0.00000000E+00  0.00000000E+00
  0.00000000E+00  0.00000000E+00  0.00000000E+00
  0.00000000E+00  0.00000000E+00  0.00000000E+00
  0.00000000E+00  0.00000000E+00  0.00000000E+00
  0.00000000E+00  0.00000000E+00  0.00000000E+00
  0.00000000E+00  0.00000000E+00  0.00000000E+00
  0.00000000E+00  0.00000000E+00  0.00000000E+00
  0.00000000E+00  0.00000000E+00  0.00000000E+00
  0.00000000E+00  0.00000000E+00  0.00000000E+00
  0.00000000E+00  0.00000000E+00  0.00000000E+00
  0.00000000E+00  0.00000000E+00  0.00000000E+00
  0.00000000E+00  0.00000000E+00  0.00000000E+00
  0.00000000E+00  0.00000000E+00  0.00000000E+00
  0.00000000E+00  0.00000000E+00  0.00000000E+00
  0.00000000E+00  0.00000000E+00  0.00000000E+00
  0.00000000E+00  0.00000000E+00  0.00000000E+00
  0.00000000E+00  0.00000000E+00  0.00000000E+00
  0.00000000E+00  0.00000000E+00  0.00000000E+00
  0.00000000E+00  0.00000000E+00  0.00000000E+00
  0.00000000E+00  0.00000000E+00  0.00000000E+00
  0.00000000E+00  0.00000000E+00  0.00000000E+00
  0.00000000E+00  0.00000000E+00  0.00000000E+00
  0.00000000E+00  0.00000000E+00  0.00000000E+00
  0.00000000E+00  0.00000000E+00  0.00000000E+00
  0.00000000E+00  0.00000000E+00  0.00000000E+00
  0.00000000E+00  0.00000000E+00  0.00000000E+00
