Type_052 Type_152                       
   1.00000000000000     
    11.2564630381999997    0.0000000000000000    0.0000000000000000
     5.0445621212000002   10.0628203370999998    0.0000000000000000
     0.0000000000000000    0.0000000000000000   22.8836493875000002
   Ty   Ty
    52    52
Direct
  0.2609206960044546  0.4787803599988010  0.2905061139999532
  0.3548805620016608  0.3848204930006744  0.4188098610021171
  0.4828820522959845  0.2870085203699801  0.5053588872112726
  0.0260635050956282  0.1998306232584000  0.0900700493744608
  0.1669608289981213  0.0727402410039417  0.1622023670021591
  0.0585309212422658  0.0285654917280240  0.4942283139671702
  0.2742390649993283  0.3333589940021469  0.1283037470021640
  0.3681989310042511  0.2393991279977712  0.2566074939999581
  0.4621587979997130  0.1454392620033360  0.3849112410021220
  0.0003019419993961  0.3715021239937357  0.2566074939999581
  0.0942618090037328  0.2775422579993005  0.3849112410021220
  0.1890603941051552  0.1842969772065359  0.4992698660136270
  0.4063420610019080  0.4654619910018027  0.1283037470021640
  0.2162598340476976  0.0261637647279969  0.0434425943810766
  0.7609206960044546  0.4787803599988010  0.2905061139999532
  0.8548805620016608  0.3848204930006744  0.4188098610021171
  0.6669608289981213  0.0727402410039417  0.1622023670021591
  0.5512136599112480  0.0350069088882776  0.4777717486474060
  0.7472621739248169  0.2861886497349460  0.0290492000049198
  0.7742390649993283  0.3333589940021469  0.1283037470021640
  0.8681989310042511  0.2393991279977712  0.2566074939999581
  0.9621587979997130  0.1454392620033360  0.3849112410021220
  0.5003019420082779  0.3715021239937357  0.2566074939999581
  0.5942618090037328  0.2775422579993005  0.3849112410021220
  0.9063420610019080  0.4654619910018027  0.1283037470021640
  0.9147170027345979  0.0466796544372556  0.0353680594906365
  0.2609206959977968  0.9787803599938343  0.2905061139999532
  0.3548805620038848  0.8848204929957006  0.4188098610021171
  0.3208990945475136  0.9007531466483698  0.5178729922803953
  0.1669608290003453  0.5727402409989679  0.1622023670021591
  0.2288689589469612  0.8024615624039981  0.0324602784119605
  0.2742390650015523  0.8333589939971802  0.1283037470021640
  0.3681989310064822  0.7393991279928045  0.2566074939999581
  0.4621587980019370  0.6454392619983693  0.3849112410021220
  0.0003019419971650  0.8715021239987024  0.2566074939999581
  0.0942618089970821  0.7775422579943267  0.3849112410021220
  0.2031368776184550  0.6638339435090330  0.4770719326246677
  0.4063420610041319  0.9654619909968361  0.1283037470021640
  0.4016046386075729  0.5650774863619148  0.0393480549213407
  0.7609206960066786  0.9787803599938343  0.2905061139999532
  0.8548805620038848  0.8848204929957006  0.4188098610021171
  0.5211637991362821  0.6973205704596950  0.0903774628897125
  0.6669608290003453  0.5727402409989679  0.1622023670021591
  0.5667544085905689  0.5686835911301955  0.4805625127042461
  0.7053593354233030  0.0285635462893339  0.0554340941700033
  0.7742390650015523  0.8333589939971802  0.1283037470021640
  0.8681989310064822  0.7393991279928045  0.2566074939999581
  0.9621587980019370  0.6454392619983693  0.3849112410021220
  0.5003019419971650  0.8715021239987024  0.2566074939999581
  0.5942618090059639  0.7775422579943267  0.3849112410021220
  0.9063420610041319  0.9654619909968361  0.1283037470021640
  0.7154981927448674  0.5251311460980403  0.0440409375722410
  0.0728776349993865  0.1668234349977240  0.3063992700014850
  0.1668375020004547  0.0728635679995975  0.4347030169992792
  0.3412021645092551  0.4102147560342502  0.0569455476018561
  0.4789177539986298  0.2607833010020997  0.1780955229993282
  0.3112639414386678  0.4672214259521326  0.5047981833618707
  0.0309809944016521  0.3535048790730144  0.4656608136559157
  0.4362735430005458  0.4716425070019454  0.3495644999992678
  0.2483538110053303  0.1595622549952793  0.0929570059993097
  0.3423136770025295  0.0656023879971457  0.2212607530014736
  0.0829344885766687  0.4778878058639648  0.1118995428455918
  0.1740986819989843  0.3973873779955071  0.2212607530014736
  0.2680585479994591  0.3034275120010648  0.3495644999992678
  0.3620184150005272  0.2094676450029382  0.4778682470014317
  0.5728776349993865  0.1668234349977240  0.3063992700014850
  0.6596121458091204  0.0808991204681107  0.4143563634557097
  0.8849578880014235  0.3547431680002333  0.0497917760015341
  0.9789177539986298  0.2607833010020997  0.1780955229993282
  0.7611977754761341  0.4579140073793582  0.4992337497986838
  0.5513842447563988  0.3962770048271764  0.4583216303571334
  0.9362735430005458  0.4716425070019454  0.3495644999992678
  0.7597183211921035  0.1587886349127103  0.0986920911108555
  0.8423136770025295  0.0656023879971457  0.2212607530014736
  0.5801388160017780  0.4913472449936336  0.0929570059993097
  0.6740986820078660  0.3973873779955071  0.2212607530014736
  0.7680585479994591  0.3034275120010648  0.3495644999992678
  0.8941012096139076  0.2014367137438313  0.4667885109284526
  0.0728776350016105  0.6668234349927573  0.3063992700014850
  0.1663891097744141  0.5681488950092515  0.4081581872252400
  0.3849578880036475  0.8547431679952595  0.0497917760015341
  0.4789177540008538  0.7607833009971330  0.1780955229993282
  0.1733656762959939  0.0543466206570073  0.5580329631415992
  0.0400710010367504  0.8575239758167825  0.4678378611869505
  0.4362735430027698  0.9716425069969787  0.3495644999992678
  0.2493508500828128  0.6639490866062161  0.0994928612716635
  0.3423136770003055  0.5656023880021124  0.2212607530014736
  0.0801388159995540  0.9913472449986003  0.0929570059993097
  0.1740986819967603  0.8973873780004737  0.2212607530014736
  0.2680585480016831  0.8034275119960981  0.3495644999992678
  0.3620184150027583  0.7094676449979715  0.4778682470014317
  0.5728776350016105  0.6668234349927573  0.3063992700014850
  0.6693382322564005  0.5773225926017318  0.4070778232814760
  0.8864819524470136  0.8684755794634995  0.0556242088027830
  0.9789177540008538  0.7607833009971330  0.1780955229993282
  0.7470023308032836  0.9342050599314575  0.4980513382985876
  0.5037535921368601  0.8734370596278538  0.4735507334035347
  0.9362735430027698  0.9716425069969787  0.3495644999992678
  0.7483538110030992  0.6595622550002460  0.0929570059993097
  0.8423136770003055  0.5656023880021124  0.2212607530014736
  0.5823970596226715  0.9806175549929179  0.1070304094126655
  0.6740986819967603  0.8973873780004737  0.2212607530014736
  0.7680585480016831  0.8034275119960981  0.3495644999992678
  0.9016240067489818  0.7112552086528297  0.4651052533523696
 
  0.00000000E+00  0.00000000E+00  0.00000000E+00
  0.00000000E+00  0.00000000E+00  0.00000000E+00
  0.00000000E+00  0.00000000E+00  0.00000000E+00
  0.00000000E+00  0.00000000E+00  0.00000000E+00
  0.00000000E+00  0.00000000E+00  0.00000000E+00
  0.00000000E+00  0.00000000E+00  0.00000000E+00
  0.00000000E+00  0.00000000E+00  0.00000000E+00
  0.00000000E+00  0.00000000E+00  0.00000000E+00
  0.00000000E+00  0.00000000E+00  0.00000000E+00
  0.00000000E+00  0.00000000E+00  0.00000000E+00
  0.00000000E+00  0.00000000E+00  0.00000000E+00
  0.00000000E+00  0.00000000E+00  0.00000000E+00
  0.00000000E+00  0.00000000E+00  0.00000000E+00
  0.00000000E+00  0.00000000E+00  0.00000000E+00
  0.00000000E+00  0.00000000E+00  0.00000000E+00
  0.00000000E+00  0.00000000E+00  0.00000000E+00
  0.00000000E+00  0.00000000E+00  0.00000000E+00
  0.00000000E+00  0.00000000E+00  0.00000000E+00
  0.00000000E+00  0.00000000E+00  0.00000000E+00
  0.00000000E+00  0.00000000E+00  0.00000000E+00
  0.00000000E+00  0.00000000E+00  0.00000000E+00
  0.00000000E+00  0.00000000E+00  0.00000000E+00
  0.00000000E+00  0.00000000E+00  0.00000000E+00
  0.00000000E+00  0.00000000E+00  0.00000000E+00
  0.00000000E+00  0.00000000E+00  0.00000000E+00
  0.00000000E+00  0.00000000E+00  0.00000000E+00
  0.00000000E+00  0.00000000E+00  0.00000000E+00
  0.00000000E+00  0.00000000E+00  0.00000000E+00
  0.00000000E+00  0.00000000E+00  0.00000000E+00
  0.00000000E+00  0.00000000E+00  0.00000000E+00
  0.00000000E+00  0.00000000E+00  0.00000000E+00
  0.00000000E+00  0.00000000E+00  0.00000000E+00
  0.00000000E+00  0.00000000E+00  0.00000000E+00
  0.00000000E+00  0.00000000E+00  0.00000000E+00
  0.00000000E+00  0.00000000E+00  0.00000000E+00
  0.00000000E+00  0.00000000E+00  0.00000000E+00
  0.00000000E+00  0.00000000E+00  0.00000000E+00
  0.00000000E+00  0.00000000E+00  0.00000000E+00
  0.00000000E+00  0.00000000E+00  0.00000000E+00
  0.00000000E+00  0.00000000E+00  0.00000000E+00
  0.00000000E+00  0.00000000E+00  0.00000000E+00
  0.00000000E+00  0.00000000E+00  0.00000000E+00
  0.00000000E+00  0.00000000E+00  0.00000000E+00
  0.00000000E+00  0.00000000E+00  0.00000000E+00
  0.00000000E+00  0.00000000E+00  0.00000000E+00
  0.00000000E+00  0.00000000E+00  0.00000000E+00
  0.00000000E+00  0.00000000E+00  0.00000000E+00
  0.00000000E+00  0.00000000E+00  0.00000000E+00
  0.00000000E+00  0.00000000E+00  0.00000000E+00
  0.00000000E+00  0.00000000E+00  0.00000000E+00
  0.00000000E+00  0.00000000E+00  0.00000000E+00
  0.00000000E+00  0.00000000E+00  0.00000000E+00
  0.00000000E+00  0.00000000E+00  0.00000000E+00
  0.00000000E+00  0.00000000E+00  0.00000000E+00
  0.00000000E+00  0.00000000E+00  0.00000000E+00
  0.00000000E+00  0.00000000E+00  0.00000000E+00
  0.00000000E+00  0.00000000E+00  0.00000000E+00
  0.00000000E+00  0.00000000E+00  0.00000000E+00
  0.00000000E+00  0.00000000E+00  0.00000000E+00
  0.00000000E+00  0.00000000E+00  0.00000000E+00
  0.00000000E+00  0.00000000E+00  0.00000000E+00
  0.00000000E+00  0.00000000E+00  0.00000000E+00
  0.00000000E+00  0.00000000E+00  0.00000000E+00
  0.00000000E+00  0.00000000E+00  0.00000000E+00
  0.00000000E+00  0.00000000E+00  0.00000000E+00
  0.00000000E+00  0.00000000E+00  0.00000000E+00
  0.00000000E+00  0.00000000E+00  0.00000000E+00
  0.00000000E+00  0.00000000E+00  0.00000000E+00
  0.00000000E+00  0.00000000E+00  0.00000000E+00
  0.00000000E+00  0.00000000E+00  0.00000000E+00
  0.00000000E+00  0.00000000E+00  0.00000000E+00
  0.00000000E+00  0.00000000E+00  0.00000000E+00
  0.00000000E+00  0.00000000E+00  0.00000000E+00
  0.00000000E+00  0.00000000E+00  0.00000000E+00
  0.00000000E+00  0.00000000E+00  0.00000000E+00
  0.00000000E+00  0.00000000E+00  0.00000000E+00
  0.00000000E+00  0.00000000E+00  0.00000000E+00
  0.00000000E+00  0.00000000E+00  0.00000000E+00
  0.00000000E+00  0.00000000E+00  0.00000000E+00
  0.00000000E+00  0.00000000E+00  0.00000000E+00
  0.00000000E+00  0.00000000E+00  0.00000000E+00
  0.00000000E+00  0.00000000E+00  0.00000000E+00
  0.00000000E+00  0.00000000E+00  0.00000000E+00
  0.00000000E+00  0.00000000E+00  0.00000000E+00
  0.00000000E+00  0.00000000E+00  0.00000000E+00
  0.00000000E+00  0.00000000E+00  0.00000000E+00
  0.00000000E+00  0.00000000E+00  0.00000000E+00
  0.00000000E+00  0.00000000E+00  0.00000000E+00
  0.00000000E+00  0.00000000E+00  0.00000000E+00
  0.00000000E+00  0.00000000E+00  0.00000000E+00
  0.00000000E+00  0.00000000E+00  0.00000000E+00
  0.00000000E+00  0.00000000E+00  0.00000000E+00
  0.00000000E+00  0.00000000E+00  0.00000000E+00
  0.00000000E+00  0.00000000E+00  0.00000000E+00
  0.00000000E+00  0.00000000E+00  0.00000000E+00
  0.00000000E+00  0.00000000E+00  0.00000000E+00
  0.00000000E+00  0.00000000E+00  0.00000000E+00
  0.00000000E+00  0.00000000E+00  0.00000000E+00
  0.00000000E+00  0.00000000E+00  0.00000000E+00
  0.00000000E+00  0.00000000E+00  0.00000000E+00
  0.00000000E+00  0.00000000E+00  0.00000000E+00
  0.00000000E+00  0.00000000E+00  0.00000000E+00
  0.00000000E+00  0.00000000E+00  0.00000000E+00
  0.00000000E+00  0.00000000E+00  0.00000000E+00
