Type_038 Type_138                       
   1.00000000000000     
    16.8846940542000006    0.0000000000000000    0.0000000000000000
     0.0000000000000000    9.5784099999999999    0.0000000000000000
     0.0000000000000000    0.0000000000000000   16.2994563815000006
   Ty   Ty
    38    38
Direct
  0.7800463069997861  0.1452969540038467  0.1276188879992901
  0.7978616288844762  0.1452959094254709  0.2894956148203605
  0.2175195263124365  0.6551205093225292  0.1019369903824412
  0.2973302850015926  0.6452969540038467  0.2222399440027587
  0.3968111080362391  0.1451726387991314  0.1349250211372777
  0.4697582780024945  0.1452969540038467  0.2537802959977782
  0.9524743000006950  0.6452969540038467  0.1591592400004487
  0.9688388154969800  0.6452919416896989  0.3200183471407243
  0.1772746357850323  0.1450981307022801  0.0504285966146014
  0.1249022930015968  0.1452969540038467  0.1906995920016072
  0.1184326656012189  0.1452719396329840  0.3397318400498932
  0.6076183139988842  0.6452969540038467  0.0960785359981386
  0.6421862709974775  0.6452969540038467  0.2853206489989688
  0.9085021533620434  0.0064561916435011  0.1242932393376890
  0.9422267238678614  0.0128400741459203  0.2766680853674615
  0.4248667550014389  0.5131939539965416  0.1972404939988621
  0.4614879483624250  0.4752969233620163  0.3417436893860000
  0.6019868608795846  0.9329204603582468  0.0940187252649309
  0.5972947470014347  0.0131939539965416  0.2287808460000207
  0.0800107689996281  0.5131939539965416  0.1341597890026520
  0.1121660135339511  0.5032848121452318  0.2978716999672812
  0.2524387620005299  0.0131939539965416  0.1657001409976715
  0.2885980741764129  0.9903942922259574  0.3217593126634881
  0.7429237063777165  0.4952483075374730  0.0987286161105629
  0.7697227400023365  0.5131939539965416  0.2603211980011793
  0.9085096791898479  0.2841781182993870  0.1242966512122123
  0.9422307609146543  0.2777685189086725  0.2766651611656386
  0.3652198705173504  0.6401866550398267  0.0781351447368195
  0.4248667550014389  0.7773999540007139  0.1972404939988621
  0.4600323496692482  0.8139871743535707  0.3419645693292139
  0.6016663422025701  0.3576177711749651  0.0940749464160291
  0.5972947470014347  0.2773999540007139  0.2287808460000207
  0.0800107689996281  0.7773999540007139  0.1341597890026520
  0.1122121971839150  0.7873426557956904  0.2977917461228401
  0.2524387620005299  0.2773999540007139  0.1657001409976715
  0.2892735557909063  0.3027692248191514  0.3204529450459717
  0.7429893728444199  0.7954008512790764  0.0987641224112963
  0.7697227400023365  0.7773999540007139  0.2603211980011793
  0.9991826021569779  0.1453039008666366  0.3581108238999349
  0.9914612059989238  0.1452969540038467  0.1889491030017183
  0.4829722466289823  0.6447998581497316  0.1099536256211664
  0.5087451840007304  0.6452969540038467  0.2835701589990478
  0.6466052199971131  0.1452969540038467  0.1258683989994012
  0.6755654257923993  0.1451981816606320  0.2923614443061240
  0.1126630338040897  0.6452227060545539  0.0406253029733890
  0.1638891979989197  0.6452969540038467  0.2204894550028698
  0.2952511509475642  0.1453973031327749  0.0695832550211506
  0.3363171909998286  0.1452969540038467  0.2520298069978892
  0.8190332129980220  0.6452969540038467  0.1574087510005597
  0.8471487629378771  0.6452932779344351  0.3242515680092666
  0.8052466511892717  0.3192880614527880  0.0570432347826824
  0.8290610549983839  0.3135119539986277  0.2207824650019887
  0.3117770760015972  0.8135119539986277  0.1261614079984881
  0.3461831883323967  0.8039797008898120  0.2998521575325199
  0.4842050690024990  0.3135119539986277  0.1577017609996787
  0.5219859585082389  0.2951583776848139  0.3290967232433744
  0.0014890469983797  0.8135119539986277  0.2523228169970153
  0.9673695088622054  0.8236079203646511  0.0882251240864775
  0.1396157433432208  0.3204315645185360  0.1109758522531479
  0.1739170399992886  0.3135119539986277  0.2838631689981668
  0.6504597194207449  0.7945596642553383  0.0157074506479020
  0.6566330619974821  0.8135119539986277  0.1892421130008373
  0.6952945654635485  0.7900959519899473  0.3566722670701097
  0.3007862035460889  0.4827973049806786  0.1321114743338327
  0.3473840560493286  0.4894178348911780  0.3011390018363471
  0.8052554339838878  0.9713695262470523  0.0570076759464584
  0.8290610549983839  0.9770819539986277  0.2207824650019887
  0.0014890469983797  0.4770819539986277  0.2523228169970153
  0.9674499409799324  0.4669853959686421  0.0882474341372870
  0.4842050690024990  0.9770819539986277  0.1577017609996787
  0.5212232097336056  0.9933825456730290  0.3284437025320770
  0.6503017978799974  0.4957513143726331  0.0157687724905813
  0.6566330619974821  0.4770819539986277  0.1892421130008373
  0.6952772161293552  0.5004575311873296  0.3566644031023216
  0.1404492273645985  0.9690922842100065  0.1109213563743197
  0.1739170399992886  0.9770819539986277  0.2838631689981668
 
  0.00000000E+00  0.00000000E+00  0.00000000E+00
  0.00000000E+00  0.00000000E+00  0.00000000E+00
  0.00000000E+00  0.00000000E+00  0.00000000E+00
  0.00000000E+00  0.00000000E+00  0.00000000E+00
  0.00000000E+00  0.00000000E+00  0.00000000E+00
  0.00000000E+00  0.00000000E+00  0.00000000E+00
  0.00000000E+00  0.00000000E+00  0.00000000E+00
  0.00000000E+00  0.00000000E+00  0.00000000E+00
  0.00000000E+00  0.00000000E+00  0.00000000E+00
  0.00000000E+00  0.00000000E+00  0.00000000E+00
  0.00000000E+00  0.00000000E+00  0.00000000E+00
  0.00000000E+00  0.00000000E+00  0.00000000E+00
  0.00000000E+00  0.00000000E+00  0.00000000E+00
  0.00000000E+00  0.00000000E+00  0.00000000E+00
  0.00000000E+00  0.00000000E+00  0.00000000E+00
  0.00000000E+00  0.00000000E+00  0.00000000E+00
  0.00000000E+00  0.00000000E+00  0.00000000E+00
  0.00000000E+00  0.00000000E+00  0.00000000E+00
  0.00000000E+00  0.00000000E+00  0.00000000E+00
  0.00000000E+00  0.00000000E+00  0.00000000E+00
  0.00000000E+00  0.00000000E+00  0.00000000E+00
  0.00000000E+00  0.00000000E+00  0.00000000E+00
  0.00000000E+00  0.00000000E+00  0.00000000E+00
  0.00000000E+00  0.00000000E+00  0.00000000E+00
  0.00000000E+00  0.00000000E+00  0.00000000E+00
  0.00000000E+00  0.00000000E+00  0.00000000E+00
  0.00000000E+00  0.00000000E+00  0.00000000E+00
  0.00000000E+00  0.00000000E+00  0.00000000E+00
  0.00000000E+00  0.00000000E+00  0.00000000E+00
  0.00000000E+00  0.00000000E+00  0.00000000E+00
  0.00000000E+00  0.00000000E+00  0.00000000E+00
  0.00000000E+00  0.00000000E+00  0.00000000E+00
  0.00000000E+00  0.00000000E+00  0.00000000E+00
  0.00000000E+00  0.00000000E+00  0.00000000E+00
  0.00000000E+00  0.00000000E+00  0.00000000E+00
  0.00000000E+00  0.00000000E+00  0.00000000E+00
  0.00000000E+00  0.00000000E+00  0.00000000E+00
  0.00000000E+00  0.00000000E+00  0.00000000E+00
  0.00000000E+00  0.00000000E+00  0.00000000E+00
  0.00000000E+00  0.00000000E+00  0.00000000E+00
  0.00000000E+00  0.00000000E+00  0.00000000E+00
  0.00000000E+00  0.00000000E+00  0.00000000E+00
  0.00000000E+00  0.00000000E+00  0.00000000E+00
  0.00000000E+00  0.00000000E+00  0.00000000E+00
  0.00000000E+00  0.00000000E+00  0.00000000E+00
  0.00000000E+00  0.00000000E+00  0.00000000E+00
  0.00000000E+00  0.00000000E+00  0.00000000E+00
  0.00000000E+00  0.00000000E+00  0.00000000E+00
  0.00000000E+00  0.00000000E+00  0.00000000E+00
  0.00000000E+00  0.00000000E+00  0.00000000E+00
  0.00000000E+00  0.00000000E+00  0.00000000E+00
  0.00000000E+00  0.00000000E+00  0.00000000E+00
  0.00000000E+00  0.00000000E+00  0.00000000E+00
  0.00000000E+00  0.00000000E+00  0.00000000E+00
  0.00000000E+00  0.00000000E+00  0.00000000E+00
  0.00000000E+00  0.00000000E+00  0.00000000E+00
  0.00000000E+00  0.00000000E+00  0.00000000E+00
  0.00000000E+00  0.00000000E+00  0.00000000E+00
  0.00000000E+00  0.00000000E+00  0.00000000E+00
  0.00000000E+00  0.00000000E+00  0.00000000E+00
  0.00000000E+00  0.00000000E+00  0.00000000E+00
  0.00000000E+00  0.00000000E+00  0.00000000E+00
  0.00000000E+00  0.00000000E+00  0.00000000E+00
  0.00000000E+00  0.00000000E+00  0.00000000E+00
  0.00000000E+00  0.00000000E+00  0.00000000E+00
  0.00000000E+00  0.00000000E+00  0.00000000E+00
  0.00000000E+00  0.00000000E+00  0.00000000E+00
  0.00000000E+00  0.00000000E+00  0.00000000E+00
  0.00000000E+00  0.00000000E+00  0.00000000E+00
  0.00000000E+00  0.00000000E+00  0.00000000E+00
  0.00000000E+00  0.00000000E+00  0.00000000E+00
  0.00000000E+00  0.00000000E+00  0.00000000E+00
  0.00000000E+00  0.00000000E+00  0.00000000E+00
  0.00000000E+00  0.00000000E+00  0.00000000E+00
  0.00000000E+00  0.00000000E+00  0.00000000E+00
  0.00000000E+00  0.00000000E+00  0.00000000E+00
