Structure 1 made from -121-4.xsd file   
   1.00000000000000     
     9.4251025535000004    3.5732980426999998    0.0000000000000000
     0.0000000000000000   10.0797329848999997    0.0000000000000000
     0.0000000000000000    0.0000000000000000   20.3205155969000018
   Ni   S 
    36    36
Direct
  0.3743321449999968  0.7513622009999992  0.1202729529999971
  0.5246006579999971  0.6010936890000025  0.2494774689999986
  0.6748691700000009  0.4508251769999987  0.3786819859999966
  0.8251376830000012  0.3005566639999984  0.5078865030000017
  0.6074864699999978  0.1848745429999994  0.0341366090000008
  0.7577549829999981  0.0346060310000027  0.1633411250000023
  0.0582920080000022  0.7340690059999986  0.4217501580000018
  0.9080234950000019  0.8843375180000024  0.2925456420000003
  0.1411778200000029  0.3178498600000026  0.2064092970000004
  0.2914463330000032  0.1675813470000023  0.3356138139999985
  0.4417148449999999  0.0173128349999985  0.4648183299999999
  0.9909093079999991  0.4681183719999993  0.0772047809999989
  0.0099399969999965  0.1157543489999995  0.4396132859999966
  0.5591344600000028  0.5665598869999968  0.0519997359999991
  0.7094029730000031  0.4162913739999965  0.1812042520000006
  0.8596714849999998  0.2660228619999998  0.3104087689999986
  0.0928258100000008  0.6995352030000035  0.2242724250000023
  0.2430943230000011  0.5492666909999997  0.3534769409999967
  0.3933628349999978  0.3989981790000030  0.4826814580000018
  0.9425572979999970  0.8498037159999967  0.0950679079999972
  0.1757116229999980  0.2833160570000004  0.0089315640000009
  0.3259801350000018  0.1330475449999966  0.1381360800000024
  0.4762486480000021  0.9827790329999999  0.2673405970000005
  0.6265171599999988  0.8325105199999996  0.3965451130000019
  0.0496418399999996  0.3402585070000015  0.4737498940000009
  0.5988363029999988  0.7910640440000023  0.0861363440000034
  0.7491048150000026  0.6407955319999985  0.2153408610000014
  0.8993733280000029  0.4905270189999982  0.3445453779999994
  0.8319906279999998  0.2245763860000025  0.0000000000000000
  0.9822591399999965  0.0743078730000022  0.1292045169999980
  0.1325276529999968  0.9240393609999984  0.2584090329999995
  0.2827961650000006  0.7737708479999981  0.3876135499999975
  0.2154134649999975  0.5078202150000024  0.0430681719999981
  0.3656819779999978  0.3575517020000021  0.1722726890000033
  0.5159504900000016  0.2072831899999983  0.3014772049999976
  0.6662190030000019  0.0570146780000016  0.4306817220000028
  0.0638215720000019  0.2620847749999982  0.3688184270000008
  0.2140900839999986  0.1118162630000015  0.4980229439999988
  0.7632845469999978  0.5626218000000023  0.1104093940000013
  0.9135530590000016  0.4123532870000020  0.2396139109999993
  0.1467073840000026  0.8458656290000022  0.1534775659999994
  0.2969758970000029  0.6955971169999984  0.2826820829999974
  0.4472444089999996  0.5453286039999981  0.4118865989999989
  0.9964388719999988  0.9961341409999989  0.0242730499999979
  0.3798617100000001  0.2793779710000024  0.0673412220000031
  0.5301302219999968  0.1291094580000021  0.1965457379999975
  0.6803987340000006  0.9788409459999983  0.3257502550000027
  0.8306672470000009  0.8285724329999979  0.4549547709999970
  0.3776957059999972  0.9482106410000029  0.0681414279999970
  0.5279642180000010  0.7979421289999991  0.1973459450000021
  0.6782327310000014  0.6476736159999987  0.3265504620000002
  0.8285012429999981  0.4974051040000020  0.4557549780000016
  0.7611185430000020  0.2314544700000027  0.1112096009999988
  0.9113870560000024  0.0811859579999989  0.2404141170000003
  0.0616555679999991  0.9309174449999986  0.3696186339999983
  0.2119240809999994  0.7806489330000019  0.4988231499999998
  0.1445413810000034  0.5146982990000026  0.1542777729999969
  0.2948098930000000  0.3644297869999988  0.2834822889999984
  0.4450784060000004  0.2141612750000021  0.4126868060000035
  0.9942728680000030  0.6649668120000030  0.0250732559999989
  0.3271408700000009  0.6623354769999992  0.0246731530000019
  0.4774093830000012  0.5120669639999988  0.1538776690000034
  0.6276778949999979  0.3617984520000022  0.2830821860000015
  0.7779464070000017  0.2115299390000018  0.4122867029999995
  0.0111007320000027  0.6450422810000020  0.3261503579999996
  0.1613692450000030  0.4947737689999983  0.4553548749999976
  0.7105637080000022  0.9455793059999991  0.0677413250000001
  0.8608322199999989  0.7953107929999987  0.1969458419999981
  0.0939865449999999  0.2288231349999990  0.1108094969999982
  0.2442550580000002  0.0785546230000023  0.2400140140000033
  0.3945235699999969  0.9282861100000019  0.3692185299999977
  0.5447920820000007  0.7780175979999981  0.4984230470000028
 
  0.00000000E+00  0.00000000E+00  0.00000000E+00
  0.00000000E+00  0.00000000E+00  0.00000000E+00
  0.00000000E+00  0.00000000E+00  0.00000000E+00
  0.00000000E+00  0.00000000E+00  0.00000000E+00
  0.00000000E+00  0.00000000E+00  0.00000000E+00
  0.00000000E+00  0.00000000E+00  0.00000000E+00
  0.00000000E+00  0.00000000E+00  0.00000000E+00
  0.00000000E+00  0.00000000E+00  0.00000000E+00
  0.00000000E+00  0.00000000E+00  0.00000000E+00
  0.00000000E+00  0.00000000E+00  0.00000000E+00
  0.00000000E+00  0.00000000E+00  0.00000000E+00
  0.00000000E+00  0.00000000E+00  0.00000000E+00
  0.00000000E+00  0.00000000E+00  0.00000000E+00
  0.00000000E+00  0.00000000E+00  0.00000000E+00
  0.00000000E+00  0.00000000E+00  0.00000000E+00
  0.00000000E+00  0.00000000E+00  0.00000000E+00
  0.00000000E+00  0.00000000E+00  0.00000000E+00
  0.00000000E+00  0.00000000E+00  0.00000000E+00
  0.00000000E+00  0.00000000E+00  0.00000000E+00
  0.00000000E+00  0.00000000E+00  0.00000000E+00
  0.00000000E+00  0.00000000E+00  0.00000000E+00
  0.00000000E+00  0.00000000E+00  0.00000000E+00
  0.00000000E+00  0.00000000E+00  0.00000000E+00
  0.00000000E+00  0.00000000E+00  0.00000000E+00
  0.00000000E+00  0.00000000E+00  0.00000000E+00
  0.00000000E+00  0.00000000E+00  0.00000000E+00
  0.00000000E+00  0.00000000E+00  0.00000000E+00
  0.00000000E+00  0.00000000E+00  0.00000000E+00
  0.00000000E+00  0.00000000E+00  0.00000000E+00
  0.00000000E+00  0.00000000E+00  0.00000000E+00
  0.00000000E+00  0.00000000E+00  0.00000000E+00
  0.00000000E+00  0.00000000E+00  0.00000000E+00
  0.00000000E+00  0.00000000E+00  0.00000000E+00
  0.00000000E+00  0.00000000E+00  0.00000000E+00
  0.00000000E+00  0.00000000E+00  0.00000000E+00
  0.00000000E+00  0.00000000E+00  0.00000000E+00
  0.00000000E+00  0.00000000E+00  0.00000000E+00
  0.00000000E+00  0.00000000E+00  0.00000000E+00
  0.00000000E+00  0.00000000E+00  0.00000000E+00
  0.00000000E+00  0.00000000E+00  0.00000000E+00
  0.00000000E+00  0.00000000E+00  0.00000000E+00
  0.00000000E+00  0.00000000E+00  0.00000000E+00
  0.00000000E+00  0.00000000E+00  0.00000000E+00
  0.00000000E+00  0.00000000E+00  0.00000000E+00
  0.00000000E+00  0.00000000E+00  0.00000000E+00
  0.00000000E+00  0.00000000E+00  0.00000000E+00
  0.00000000E+00  0.00000000E+00  0.00000000E+00
  0.00000000E+00  0.00000000E+00  0.00000000E+00
  0.00000000E+00  0.00000000E+00  0.00000000E+00
  0.00000000E+00  0.00000000E+00  0.00000000E+00
  0.00000000E+00  0.00000000E+00  0.00000000E+00
  0.00000000E+00  0.00000000E+00  0.00000000E+00
  0.00000000E+00  0.00000000E+00  0.00000000E+00
  0.00000000E+00  0.00000000E+00  0.00000000E+00
  0.00000000E+00  0.00000000E+00  0.00000000E+00
  0.00000000E+00  0.00000000E+00  0.00000000E+00
  0.00000000E+00  0.00000000E+00  0.00000000E+00
  0.00000000E+00  0.00000000E+00  0.00000000E+00
  0.00000000E+00  0.00000000E+00  0.00000000E+00
  0.00000000E+00  0.00000000E+00  0.00000000E+00
  0.00000000E+00  0.00000000E+00  0.00000000E+00
  0.00000000E+00  0.00000000E+00  0.00000000E+00
  0.00000000E+00  0.00000000E+00  0.00000000E+00
  0.00000000E+00  0.00000000E+00  0.00000000E+00
  0.00000000E+00  0.00000000E+00  0.00000000E+00
  0.00000000E+00  0.00000000E+00  0.00000000E+00
  0.00000000E+00  0.00000000E+00  0.00000000E+00
  0.00000000E+00  0.00000000E+00  0.00000000E+00
  0.00000000E+00  0.00000000E+00  0.00000000E+00
  0.00000000E+00  0.00000000E+00  0.00000000E+00
  0.00000000E+00  0.00000000E+00  0.00000000E+00
  0.00000000E+00  0.00000000E+00  0.00000000E+00
