Structure 1 made from -112-5.xsd file
1.0
       16.8846940542        0.0000000000        0.0000000000
        0.0000000000        9.5784100000        0.0000000000
        0.0000000000        0.0000000000       16.1690871197
   Ni    S
   36   36
Direct
     0.780046305     0.145296957     0.097148577
     0.814614262     0.145296957     0.287916524
     0.262762326     0.645296957     0.001764604
     0.297330284     0.645296957     0.192532551
     0.435190319     0.145296957     0.033559261
     0.469758276     0.145296957     0.224327209
     0.952474298     0.645296957     0.128943235
     0.987042255     0.645296957     0.319711182
     0.124902291     0.145296957     0.160737893
     0.159470248     0.145296957     0.351505840
     0.607618312     0.645296957     0.065353919
     0.642186269     0.645296957     0.256121867
     0.907582774     0.013193957     0.071947559
     0.942150731     0.013193957     0.262715506
     0.424866753     0.513193957     0.167331533
     0.459434710     0.513193957     0.358099480
     0.562726788     0.013193957     0.008358243
     0.597294746     0.013193957     0.199126191
     0.080010767     0.513193957     0.103742217
     0.114578724     0.513193957     0.294510164
     0.252438760     0.013193957     0.135536875
     0.287006717     0.013193957     0.326304822
     0.735154781     0.513193957     0.040152901
     0.769722738     0.513193957     0.230920848
     0.907582774     0.277399957     0.071947559
     0.942150731     0.277399957     0.262715506
     0.424866753     0.777399957     0.167331533
     0.459434710     0.777399957     0.358099480
     0.562726788     0.277399957     0.008358243
     0.597294746     0.277399957     0.199126191
     0.080010767     0.777399957     0.103742217
     0.114578724     0.777399957     0.294510164
     0.252438760     0.277399957     0.135536875
     0.287006717     0.277399957     0.326304822
     0.735154781     0.777399957     0.040152901
     0.769722738     0.777399957     0.230920848
     0.026029161     0.145296957     0.349741237
     0.991461204     0.145296957     0.158973289
     0.474177225     0.645296957     0.063589316
     0.508745182     0.645296957     0.254357263
     0.646605218     0.145296957     0.095383974
     0.681173175     0.145296957     0.286151921
     0.129321239     0.645296957     0.000000000
     0.163889197     0.645296957     0.190767947
     0.198457154     0.645296957     0.381535895
     0.301749232     0.145296957     0.031794658
     0.336317189     0.145296957     0.222562605
     0.819033211     0.645296957     0.127178632
     0.853601168     0.645296957     0.317946579
     0.794493096     0.313511957     0.000295372
     0.829061053     0.313511957     0.191063320
     0.311777074     0.813511957     0.095679346
     0.346345031     0.813511957     0.286447293
     0.484205067     0.313511957     0.127474004
     0.518773024     0.313511957     0.318241951
     0.001489046     0.813511957     0.222857978
     0.966921088     0.813511957     0.032090030
     0.139349081     0.313511957     0.063884688
     0.173917038     0.313511957     0.254652635
     0.656633060     0.813511957     0.159268662
     0.311777074     0.477081957     0.095679346
     0.346345031     0.477081957     0.286447293
     0.794493096     0.977081957     0.000295372
     0.829061053     0.977081957     0.191063320
     0.001489046     0.477081957     0.222857978
     0.966921088     0.477081957     0.032090030
     0.484205067     0.977081957     0.127474004
     0.518773024     0.977081957     0.318241951
     0.656633060     0.477081957     0.159268662
     0.691201017     0.477081957     0.350036609
     0.139349081     0.977081957     0.063884688
     0.173917038     0.977081957     0.254652635
