Structure 33 made from 011-3.xsd file   
   1.00000000000000     
     8.4281814759000007   -4.5510103424999997    0.0000000000000000
     0.0000000000000000   10.0797329848999997    0.0000000000000000
     0.0000000000000000    0.0000000000000000   19.0111357400000003
   Ni   S 
    27    27
Direct
  0.5826303170000031  0.7899633330000029  0.2573980849999984
  0.5199904039999979  0.6646835080000031  0.4118369360000003
  0.3328168669999982  0.2903364339999968  0.0514796169999983
  0.2701769540000001  0.1650566080000004  0.2059184680000001
  0.2075370410000019  0.0397767830000006  0.3603573190000020
  0.0203635049999988  0.6654297090000014  0.0000000000000000
  0.9577235920000007  0.5401498840000016  0.1544388510000019
  0.8950836790000025  0.4148700579999982  0.3088777019999966
  0.8324437659999973  0.2895902320000019  0.4633165529999985
  0.6618200699999974  0.6841368400000007  0.0621555629999975
  0.5991801569999993  0.5588570150000010  0.2165944139999993
  0.5365402449999976  0.4335771889999975  0.3710332650000012
  0.3493667079999980  0.0592301160000019  0.0106759459999992
  0.2867267949999999  0.9339502899999985  0.1651147970000011
  0.2240868820000017  0.8086704640000022  0.3195536480000030
  0.1614469689999964  0.6833906390000024  0.4739924989999977
  0.9742734330000005  0.3090435650000032  0.1136351800000028
  0.9116335200000023  0.1837637400000034  0.2680740309999976
  0.8468363169999975  0.7899633330000029  0.2573980849999984
  0.7841964039999993  0.6646835080000031  0.4118369360000003
  0.5970228669999997  0.2903364339999968  0.0514796169999983
  0.5343829540000016  0.1650566080000004  0.2059184680000001
  0.4717430410000034  0.0397767830000006  0.3603573190000020
  0.2845695050000003  0.6654297090000014  0.0000000000000000
  0.2219295920000022  0.5401498840000016  0.1544388510000019
  0.1592896789999969  0.4148700579999982  0.3088777019999966
  0.0966497659999987  0.2895902320000019  0.4633165529999985
  0.8251816779999999  0.6744300550000020  0.1530102919999976
  0.7625417650000017  0.5491502300000022  0.3074491429999995
  0.6999018519999964  0.4238704039999988  0.4618879940000014
  0.5127283149999968  0.0495233310000032  0.1015306749999993
  0.4500884030000023  0.9242435049999997  0.2559695260000012
  0.3874484899999970  0.7989636790000034  0.4104083770000031
  0.2002749529999974  0.4246166060000007  0.0500510580000011
  0.1376350399999993  0.2993367799999973  0.2044899090000030
  0.0749951270000011  0.1740569540000010  0.3589287599999977
  0.8667476449999967  0.0939919890000027  0.0505293029999976
  0.8041077319999985  0.9687121640000029  0.2049681539999995
  0.7414678190000004  0.8434323379999995  0.3594070050000013
  0.4916543690000026  0.3438054390000005  0.1534885370000012
  0.4290144570000010  0.2185256129999971  0.3079273880000031
  0.3663745440000028  0.0932457870000007  0.4623662389999978
  0.1792010070000032  0.7188987139999981  0.1020089200000029
  0.1165610939999979  0.5936188880000017  0.2564477709999977
  0.0539211809999998  0.4683390630000019  0.4108866219999996
  0.4887516779999999  0.6744300550000020  0.1530102919999976
  0.4261117650000017  0.5491502300000022  0.3074491429999995
  0.3634718520000035  0.4238704039999988  0.4618879940000014
  0.1762983149999968  0.0495233310000032  0.1015306749999993
  0.1136584030000023  0.9242435049999997  0.2559695260000012
  0.0510184899999970  0.7989636790000034  0.4104083770000031
  0.8638449529999974  0.4246166060000007  0.0500510580000011
  0.8012050399999993  0.2993367799999973  0.2044899090000030
  0.7385651270000011  0.1740569540000010  0.3589287599999977
 
  0.00000000E+00  0.00000000E+00  0.00000000E+00
  0.00000000E+00  0.00000000E+00  0.00000000E+00
  0.00000000E+00  0.00000000E+00  0.00000000E+00
  0.00000000E+00  0.00000000E+00  0.00000000E+00
  0.00000000E+00  0.00000000E+00  0.00000000E+00
  0.00000000E+00  0.00000000E+00  0.00000000E+00
  0.00000000E+00  0.00000000E+00  0.00000000E+00
  0.00000000E+00  0.00000000E+00  0.00000000E+00
  0.00000000E+00  0.00000000E+00  0.00000000E+00
  0.00000000E+00  0.00000000E+00  0.00000000E+00
  0.00000000E+00  0.00000000E+00  0.00000000E+00
  0.00000000E+00  0.00000000E+00  0.00000000E+00
  0.00000000E+00  0.00000000E+00  0.00000000E+00
  0.00000000E+00  0.00000000E+00  0.00000000E+00
  0.00000000E+00  0.00000000E+00  0.00000000E+00
  0.00000000E+00  0.00000000E+00  0.00000000E+00
  0.00000000E+00  0.00000000E+00  0.00000000E+00
  0.00000000E+00  0.00000000E+00  0.00000000E+00
  0.00000000E+00  0.00000000E+00  0.00000000E+00
  0.00000000E+00  0.00000000E+00  0.00000000E+00
  0.00000000E+00  0.00000000E+00  0.00000000E+00
  0.00000000E+00  0.00000000E+00  0.00000000E+00
  0.00000000E+00  0.00000000E+00  0.00000000E+00
  0.00000000E+00  0.00000000E+00  0.00000000E+00
  0.00000000E+00  0.00000000E+00  0.00000000E+00
  0.00000000E+00  0.00000000E+00  0.00000000E+00
  0.00000000E+00  0.00000000E+00  0.00000000E+00
  0.00000000E+00  0.00000000E+00  0.00000000E+00
  0.00000000E+00  0.00000000E+00  0.00000000E+00
  0.00000000E+00  0.00000000E+00  0.00000000E+00
  0.00000000E+00  0.00000000E+00  0.00000000E+00
  0.00000000E+00  0.00000000E+00  0.00000000E+00
  0.00000000E+00  0.00000000E+00  0.00000000E+00
  0.00000000E+00  0.00000000E+00  0.00000000E+00
  0.00000000E+00  0.00000000E+00  0.00000000E+00
  0.00000000E+00  0.00000000E+00  0.00000000E+00
  0.00000000E+00  0.00000000E+00  0.00000000E+00
  0.00000000E+00  0.00000000E+00  0.00000000E+00
  0.00000000E+00  0.00000000E+00  0.00000000E+00
  0.00000000E+00  0.00000000E+00  0.00000000E+00
  0.00000000E+00  0.00000000E+00  0.00000000E+00
  0.00000000E+00  0.00000000E+00  0.00000000E+00
  0.00000000E+00  0.00000000E+00  0.00000000E+00
  0.00000000E+00  0.00000000E+00  0.00000000E+00
  0.00000000E+00  0.00000000E+00  0.00000000E+00
  0.00000000E+00  0.00000000E+00  0.00000000E+00
  0.00000000E+00  0.00000000E+00  0.00000000E+00
  0.00000000E+00  0.00000000E+00  0.00000000E+00
  0.00000000E+00  0.00000000E+00  0.00000000E+00
  0.00000000E+00  0.00000000E+00  0.00000000E+00
  0.00000000E+00  0.00000000E+00  0.00000000E+00
  0.00000000E+00  0.00000000E+00  0.00000000E+00
  0.00000000E+00  0.00000000E+00  0.00000000E+00
  0.00000000E+00  0.00000000E+00  0.00000000E+00
