Type_036 Type_136 
1.0
9.5784099999999999e+00 0.0000000000000000e+00 0.0000000000000000e+00 
-4.7892049998999999e+00 1.0403353751099999e+01 0.0000000000000000e+00 
0.0000000000000000e+00 0.0000000000000000e+00 1.9870330069700000e+01 
Type_0 Type_1 
36 36 
Cartesian
   4.0816203985    4.5934131926    0.5804299553
   4.0556245490    6.3581094339    2.7070534131
   4.0556245538    8.2527059550    5.2101680512
   4.0334765121   10.1186862828    7.4140879401
   4.0556245537    0.6856046174    4.3757964985
   4.0556245490    2.5802011385    6.8789111565
   3.8829703652    4.0941400748    8.8781642453
  -0.7335804510    9.1943618474    1.8726818604
  -0.8427571635    1.8645771016    1.4006418750
  -0.7335804462    3.5218570309    3.5414249657
  -0.7335804510    5.4164535519    6.0445396038
  -0.7484829221    7.2611245453    8.2602846647
   5.3209612452    2.7160119697    1.5266145885
   5.3209612500    4.6106084908    4.0297292266
   5.3209612548    6.5052050118    6.5328438647
   5.3209612451    8.3679474681    8.6117939067
   5.3209612500    0.8327001953    8.2015869700
   0.5317562497    5.4966303447    2.0418284538
   0.5317562500    7.4468609042    3.1953576739
   0.5317562452    9.3414574253    5.6984723319
   0.5317562452    1.7743560877    4.8641007792
   0.5317562500    3.6689526088    7.3672154173
   0.5317562544    5.5005460235    9.4569173197
  -4.2574487452   10.2831133073    2.3609861213
  -2.9921120538    8.2527059550    5.2101680512
  -2.9699640211   10.1186862825    7.4140879397
   6.5603020919    4.5934131911    0.5804299552
   6.5862979415    6.3581094339    2.7070534131
   6.5862979462    0.6856046174    4.3757964985
   6.5862979414    2.5802011385    6.8789111565
   6.7589521407    4.0941400787    8.8781642405
   1.7970929415    9.1943618474    1.8726818604
   1.9062696612    1.8645771075    1.4006418751
   1.7970929462    3.5218570309    3.5414249657
   1.7970929414    5.4164535519    6.0445396038
   1.8119954162    7.2611245459    8.2602846622
  -2.6462165118    6.0272032094    5.0217319090
  -2.6462165166    7.9217997305    7.5248465669
   7.0426666730    2.5890370209    0.3799040099
   6.9321934834    4.1326066883    2.5186172709
   6.9321934833    0.3546983929    6.6904750143
   6.7924500054    2.0810137958    8.8821396126
   2.1313926180    7.0034585914    1.9490648521
   2.1429884882    8.8634556229    4.1873603762
   2.1429884833    1.2963542749    3.3529888235
   2.1429884881    3.1909507959    5.8561034616
   2.1429884929    5.0855473170    8.3592181196
  -2.5139841868   10.1830209510    1.2471025054
   0.5317562466    1.4230839560    7.7676419158
  -4.2574487548   10.1470018191    5.8406008487
   5.3209612458    6.1936184035    1.0461393178
   5.3209612500    8.2524052981    3.3374861907
   5.3209612548    0.6853039501    2.5031146381
   5.3209612500    2.5799004711    5.0062292960
   5.3209612500    4.4744970026    7.5093439341
   0.5317562452    9.0722966053    0.3495294016
   0.5317562452    3.5215563635    1.6687431053
   0.5317562500    5.4161528846    4.1718577434
   0.5317562452    7.3107494057    6.6749724013
   0.5317562471    8.9158840522    8.6676267333
   3.5992558219    2.5890370227    0.3799040047
   3.7097290071    4.1326066883    2.5186172709
   3.7097290119    6.0272032094    5.0217319090
   3.7097290071    7.9217997305    7.5248465669
   3.7097290070    0.3546983929    6.6904750143
   3.8494724915    2.0810137924    8.8821396123
  -1.0678801223    7.0034585899    1.9490648572
  -1.0794759881    8.8634556229    4.1873603762
  -1.0794759882    3.1909507959    5.8561034616
  -1.0794759834    5.0855473170    8.3592181196
   8.4989340070    1.2963542749    3.3529888235
   3.5774966886   10.1830209442    1.2471025137
