Structure 1 made from 001-1.xsd file    
   1.00000000000000     
     8.2951463878999991   -4.7892049999999999    0.0000000000000000
     0.0000000000000000    9.5784099999999999    0.0000000000000000
     0.0000000000000000    0.0000000000000000   18.9708965206999984
   Ni   S 
    27    27
Direct
  0.4584324329999987  0.5415675670000013  0.0551595789999979
  0.4584324329999987  0.5415675670000013  0.2206383159999987
  0.4584324329999987  0.5415675670000013  0.3861170529999995
  0.1250990999999999  0.8749009000000001  0.1103191580000029
  0.1250990999999999  0.8749009000000001  0.2757978949999966
  0.1250990999999999  0.8749009000000001  0.4412766330000011
  0.7917657670000011  0.2082342329999989  0.0000000000000000
  0.7917657670000011  0.2082342329999989  0.1654787370000008
  0.7917657670000011  0.2082342329999989  0.3309574740000016
  0.4584324329999987  0.2773615669999998  0.0551595789999979
  0.4584324329999987  0.2773615669999998  0.2206383159999987
  0.4584324329999987  0.2773615669999998  0.3861170529999995
  0.1250990999999999  0.6106948999999986  0.1103191580000029
  0.1250990999999999  0.6106948999999986  0.2757978949999966
  0.1250990999999999  0.6106948999999986  0.4412766330000011
  0.7917657670000011  0.9440282329999974  0.0000000000000000
  0.7917657670000011  0.9440282329999974  0.1654787370000008
  0.7917657670000011  0.9440282329999974  0.3309574740000016
  0.7226384330000002  0.5415675670000013  0.0551595789999979
  0.7226384330000002  0.5415675670000013  0.2206383159999987
  0.7226384330000002  0.5415675670000013  0.3861170529999995
  0.3893051000000014  0.8749009000000001  0.1103191580000029
  0.3893051000000014  0.8749009000000001  0.2757978949999966
  0.3893051000000014  0.8749009000000001  0.4412766330000011
  0.0559717670000026  0.2082342329999989  0.0000000000000000
  0.0559717670000026  0.2082342329999989  0.1654787370000008
  0.0559717670000026  0.2082342329999989  0.3309574740000016
  0.6586444329999992  0.3413555670000008  0.1419193090000022
  0.6586444329999992  0.3413555670000008  0.3073980460000030
  0.6586444329999992  0.3413555670000008  0.4728767829999967
  0.3253111000000004  0.6746888999999996  0.0316001509999992
  0.3253111000000004  0.6746888999999996  0.1970788880000001
  0.3253111000000004  0.6746888999999996  0.3625576250000009
  0.9919777670000016  0.0080222329999984  0.0867597299999971
  0.9919777670000016  0.0080222329999984  0.2522384669999980
  0.9919777670000016  0.0080222329999984  0.4177172039999988
  0.6586444329999992  0.6777855670000008  0.1419193090000022
  0.6586444329999992  0.6777855670000008  0.3073980460000030
  0.6586444329999992  0.6777855670000008  0.4728767829999967
  0.3253111000000004  0.0111188999999996  0.0316001509999992
  0.3253111000000004  0.0111188999999996  0.1970788880000001
  0.3253111000000004  0.0111188999999996  0.3625576250000009
  0.9919777670000016  0.3444522329999984  0.0867597299999971
  0.9919777670000016  0.3444522329999984  0.2522384669999980
  0.9919777670000016  0.3444522329999984  0.4177172039999988
  0.3222144329999992  0.3413555670000008  0.1419193090000022
  0.3222144329999992  0.3413555670000008  0.3073980460000030
  0.3222144329999992  0.3413555670000008  0.4728767829999967
  0.9888811000000004  0.6746888999999996  0.0316001509999992
  0.9888811000000004  0.6746888999999996  0.1970788880000001
  0.9888811000000004  0.6746888999999996  0.3625576250000009
  0.6555477670000016  0.0080222329999984  0.0867597299999971
  0.6555477670000016  0.0080222329999984  0.2522384669999980
  0.6555477670000016  0.0080222329999984  0.4177172039999988
 
  0.00000000E+00  0.00000000E+00  0.00000000E+00
  0.00000000E+00  0.00000000E+00  0.00000000E+00
  0.00000000E+00  0.00000000E+00  0.00000000E+00
  0.00000000E+00  0.00000000E+00  0.00000000E+00
  0.00000000E+00  0.00000000E+00  0.00000000E+00
  0.00000000E+00  0.00000000E+00  0.00000000E+00
  0.00000000E+00  0.00000000E+00  0.00000000E+00
  0.00000000E+00  0.00000000E+00  0.00000000E+00
  0.00000000E+00  0.00000000E+00  0.00000000E+00
  0.00000000E+00  0.00000000E+00  0.00000000E+00
  0.00000000E+00  0.00000000E+00  0.00000000E+00
  0.00000000E+00  0.00000000E+00  0.00000000E+00
  0.00000000E+00  0.00000000E+00  0.00000000E+00
  0.00000000E+00  0.00000000E+00  0.00000000E+00
  0.00000000E+00  0.00000000E+00  0.00000000E+00
  0.00000000E+00  0.00000000E+00  0.00000000E+00
  0.00000000E+00  0.00000000E+00  0.00000000E+00
  0.00000000E+00  0.00000000E+00  0.00000000E+00
  0.00000000E+00  0.00000000E+00  0.00000000E+00
  0.00000000E+00  0.00000000E+00  0.00000000E+00
  0.00000000E+00  0.00000000E+00  0.00000000E+00
  0.00000000E+00  0.00000000E+00  0.00000000E+00
  0.00000000E+00  0.00000000E+00  0.00000000E+00
  0.00000000E+00  0.00000000E+00  0.00000000E+00
  0.00000000E+00  0.00000000E+00  0.00000000E+00
  0.00000000E+00  0.00000000E+00  0.00000000E+00
  0.00000000E+00  0.00000000E+00  0.00000000E+00
  0.00000000E+00  0.00000000E+00  0.00000000E+00
  0.00000000E+00  0.00000000E+00  0.00000000E+00
  0.00000000E+00  0.00000000E+00  0.00000000E+00
  0.00000000E+00  0.00000000E+00  0.00000000E+00
  0.00000000E+00  0.00000000E+00  0.00000000E+00
  0.00000000E+00  0.00000000E+00  0.00000000E+00
  0.00000000E+00  0.00000000E+00  0.00000000E+00
  0.00000000E+00  0.00000000E+00  0.00000000E+00
  0.00000000E+00  0.00000000E+00  0.00000000E+00
  0.00000000E+00  0.00000000E+00  0.00000000E+00
  0.00000000E+00  0.00000000E+00  0.00000000E+00
  0.00000000E+00  0.00000000E+00  0.00000000E+00
  0.00000000E+00  0.00000000E+00  0.00000000E+00
  0.00000000E+00  0.00000000E+00  0.00000000E+00
  0.00000000E+00  0.00000000E+00  0.00000000E+00
  0.00000000E+00  0.00000000E+00  0.00000000E+00
  0.00000000E+00  0.00000000E+00  0.00000000E+00
  0.00000000E+00  0.00000000E+00  0.00000000E+00
  0.00000000E+00  0.00000000E+00  0.00000000E+00
  0.00000000E+00  0.00000000E+00  0.00000000E+00
  0.00000000E+00  0.00000000E+00  0.00000000E+00
  0.00000000E+00  0.00000000E+00  0.00000000E+00
  0.00000000E+00  0.00000000E+00  0.00000000E+00
  0.00000000E+00  0.00000000E+00  0.00000000E+00
  0.00000000E+00  0.00000000E+00  0.00000000E+00
  0.00000000E+00  0.00000000E+00  0.00000000E+00
  0.00000000E+00  0.00000000E+00  0.00000000E+00
