Type_048 Type_148                       
   1.00000000000000     
    11.2564630381999997    0.0000000000000000    0.0000000000000000
     5.0445621212000002   10.0628203370999998    0.0000000000000000
     0.0000000000000000    0.0000000000000000   21.7442318436000015
   Ty   Ty
    48    48
Direct
  0.2609206960044546  0.4787803599988010  0.2533279879979418
  0.3548805620016608  0.3848204930006744  0.3883549679997316
  0.3757253543045564  0.3639752767915923  0.4976708697798884
  0.1669608289981213  0.0727402410039417  0.1183010080007563
  0.0429071730692954  0.0528306777216301  0.4673420581785663
  0.2742390649993283  0.3333589940021469  0.0826260699997476
  0.3681989310042511  0.2393991279977712  0.2176530500015303
  0.4621587979997130  0.1454392620033360  0.3526800299987229
  0.0003019419993961  0.3715021239937357  0.2176530500015303
  0.0942618090037328  0.2775422579993005  0.3526800299987229
  0.1868703874139186  0.1967938837682439  0.4673420668659318
  0.4847042764579683  0.4423987181393869  0.1140096747694344
  0.7609206960044546  0.4787803599988010  0.2533279879979418
  0.8548805620016608  0.3848204930006744  0.3883549679997316
  0.9539208673427595  0.2857801946634737  0.5048399840544846
  0.6838552132659643  0.0630894106257074  0.1318553233989661
  0.5495601715850640  0.0549493755901977  0.4727459506335947
  0.7742390649993283  0.3333589940021469  0.0826260699997476
  0.8681989310042511  0.2393991279977712  0.2176530500015303
  0.9621587979997130  0.1454392620033360  0.3526800299987229
  0.5003019420082779  0.3715021239937357  0.2176530500015303
  0.5942618090037328  0.2775422579993005  0.3526800299987229
  0.6847539071952937  0.1901396704903746  0.4727460853589776
  0.9063420610019080  0.4654619910018027  0.0826260699997476
  0.2609206959977968  0.9787803599938343  0.2533279879979418
  0.3548805620038848  0.8848204929957006  0.3883549679997316
  0.4539162692688876  0.7857847927332458  0.5048406637105884
  0.1766116561741455  0.5558458393993320  0.1318553199727717
  0.0495613883839781  0.5549471571316289  0.4727460784468036
  0.2792892018778872  0.8314934241498477  0.1005313157035417
  0.3681989310064822  0.7393991279928045  0.2176530500015303
  0.4621587980019370  0.6454392619983693  0.3526800299987229
  0.0003019419971650  0.8715021239987024  0.2176530500015303
  0.0942618089970821  0.7775422579943267  0.3526800299987229
  0.1847516887339324  0.6901408872913848  0.4727459575411785
  0.4082076446623262  0.9604118516822453  0.1005313209049206
  0.7609206960066786  0.9787803599938343  0.2533279879979418
  0.8548805620038848  0.8848204929957006  0.3883549679997316
  0.8757257887626153  0.8639757112473205  0.4976708697798884
  0.6669608290003453  0.5727402409989679  0.1183010080007563
  0.5429106360508129  0.5528322137273918  0.4673469174856635
  0.7973023445637679  0.7549967531060489  0.1140096767837591
  0.8681989310064822  0.7393991279928045  0.2176530500015303
  0.9621587980019370  0.6454392619983693  0.3526800299987229
  0.5003019419971650  0.8715021239987024  0.2176530500015303
  0.5942618090059639  0.7775422579943267  0.3526800299987229
  0.6868688514047747  0.6967904207977469  0.4673469261638274
  0.9063420610041319  0.9654619909968361  0.0826260699997476
  0.0728776349993865  0.1668234349977240  0.2700539599989753
  0.1668375020004547  0.0728635679995975  0.4050809400007651
  0.3165672081018940  0.4871675229782326  0.0612754188321532
  0.4789177539986298  0.2607833010020997  0.1350269800017898
  0.2114363546732889  0.5282651042969917  0.5268186412467628
  0.0302334250019030  0.3776826399938784  0.4505080670018344
  0.4362735430005458  0.4716425070019454  0.3154810870000517
  0.2705820873980187  0.1533241799827891  0.0680139025207893
  0.3423136770025295  0.0656023879971457  0.1804541069982619
  0.0821220351806318  0.4805660714890223  0.0684328287889358
  0.1740986819989843  0.3973873779955071  0.1804541069982619
  0.2680585479994591  0.3034275120010648  0.3154810870000517
  0.3620184150005272  0.2094676450029382  0.4505080670018344
  0.5728776349993865  0.1668234349977240  0.2700539599989753
  0.6668375020004547  0.0728635679995975  0.4050809400007651
  0.8749220016062580  0.3647790513626390  0.0139793164866120
  0.9789177539986298  0.2607833010020997  0.1350269800017898
  0.5302334250019030  0.3776826399938784  0.4505080670018344
  0.9362735430005458  0.4716425070019454  0.3154810870000517
  0.7591349870491015  0.1575790213459172  0.0684328237991068
  0.8423136770025295  0.0656023879971457  0.1804541069982619
  0.5984036865038362  0.4858218864522499  0.0532691853421738
  0.6740986820078660  0.3973873779955071  0.1804541069982619
  0.7680585479994591  0.3034275120010648  0.3154810870000517
  0.8620184150005272  0.2094676450029382  0.4505080670018344
  0.0728776350016105  0.6668234349927573  0.2700539599989753
  0.1668375020026858  0.5728635679946237  0.4050809400007651
  0.3371090550165690  0.9025920089136292  0.0275588411221079
  0.4789177540008538  0.7607833009971330  0.1350269800017898
  0.0302334249996719  0.8776826399988451  0.4505080670018344
  0.4362735430027698  0.9716425069969787  0.3154810870000517
  0.3423136770003055  0.5656023880021124  0.1804541069982619
  0.0863768703917316  0.9691189870642631  0.0680139084947839
  0.1740986819967603  0.8973873780004737  0.1804541069982619
  0.2680585480016831  0.8034275119960981  0.3154810870000517
  0.3620184150027583  0.7094676449979715  0.4505080670018344
  0.5728776350016105  0.6668234349927573  0.2700539599989753
  0.6668375020026858  0.5728635679946237  0.4050809400007651
  0.7525335286369241  0.9231338429596860  0.0612754298649634
  0.9789177540008538  0.7607833009971330  0.1350269800017898
  0.7114359495241445  0.0282646991372175  0.5268186412467628
  0.5302334249996719  0.8776826399988451  0.4505080670018344
  0.9362735430027698  0.9716425069969787  0.3154810870000517
  0.7538791760475476  0.6412973667539177  0.0532691746680811
  0.8423136770003055  0.5656023880021124  0.1804541069982619
  0.6740986819967603  0.8973873780004737  0.1804541069982619
  0.7680585480016831  0.8034275119960981  0.3154810870000517
  0.8620184150027583  0.7094676449979715  0.4505080670018344
 
  0.00000000E+00  0.00000000E+00  0.00000000E+00
  0.00000000E+00  0.00000000E+00  0.00000000E+00
  0.00000000E+00  0.00000000E+00  0.00000000E+00
  0.00000000E+00  0.00000000E+00  0.00000000E+00
  0.00000000E+00  0.00000000E+00  0.00000000E+00
  0.00000000E+00  0.00000000E+00  0.00000000E+00
  0.00000000E+00  0.00000000E+00  0.00000000E+00
  0.00000000E+00  0.00000000E+00  0.00000000E+00
  0.00000000E+00  0.00000000E+00  0.00000000E+00
  0.00000000E+00  0.00000000E+00  0.00000000E+00
  0.00000000E+00  0.00000000E+00  0.00000000E+00
  0.00000000E+00  0.00000000E+00  0.00000000E+00
  0.00000000E+00  0.00000000E+00  0.00000000E+00
  0.00000000E+00  0.00000000E+00  0.00000000E+00
  0.00000000E+00  0.00000000E+00  0.00000000E+00
  0.00000000E+00  0.00000000E+00  0.00000000E+00
  0.00000000E+00  0.00000000E+00  0.00000000E+00
  0.00000000E+00  0.00000000E+00  0.00000000E+00
  0.00000000E+00  0.00000000E+00  0.00000000E+00
  0.00000000E+00  0.00000000E+00  0.00000000E+00
  0.00000000E+00  0.00000000E+00  0.00000000E+00
  0.00000000E+00  0.00000000E+00  0.00000000E+00
  0.00000000E+00  0.00000000E+00  0.00000000E+00
  0.00000000E+00  0.00000000E+00  0.00000000E+00
  0.00000000E+00  0.00000000E+00  0.00000000E+00
  0.00000000E+00  0.00000000E+00  0.00000000E+00
  0.00000000E+00  0.00000000E+00  0.00000000E+00
  0.00000000E+00  0.00000000E+00  0.00000000E+00
  0.00000000E+00  0.00000000E+00  0.00000000E+00
  0.00000000E+00  0.00000000E+00  0.00000000E+00
  0.00000000E+00  0.00000000E+00  0.00000000E+00
  0.00000000E+00  0.00000000E+00  0.00000000E+00
  0.00000000E+00  0.00000000E+00  0.00000000E+00
  0.00000000E+00  0.00000000E+00  0.00000000E+00
  0.00000000E+00  0.00000000E+00  0.00000000E+00
  0.00000000E+00  0.00000000E+00  0.00000000E+00
  0.00000000E+00  0.00000000E+00  0.00000000E+00
  0.00000000E+00  0.00000000E+00  0.00000000E+00
  0.00000000E+00  0.00000000E+00  0.00000000E+00
  0.00000000E+00  0.00000000E+00  0.00000000E+00
  0.00000000E+00  0.00000000E+00  0.00000000E+00
  0.00000000E+00  0.00000000E+00  0.00000000E+00
  0.00000000E+00  0.00000000E+00  0.00000000E+00
  0.00000000E+00  0.00000000E+00  0.00000000E+00
  0.00000000E+00  0.00000000E+00  0.00000000E+00
  0.00000000E+00  0.00000000E+00  0.00000000E+00
  0.00000000E+00  0.00000000E+00  0.00000000E+00
  0.00000000E+00  0.00000000E+00  0.00000000E+00
  0.00000000E+00  0.00000000E+00  0.00000000E+00
  0.00000000E+00  0.00000000E+00  0.00000000E+00
  0.00000000E+00  0.00000000E+00  0.00000000E+00
  0.00000000E+00  0.00000000E+00  0.00000000E+00
  0.00000000E+00  0.00000000E+00  0.00000000E+00
  0.00000000E+00  0.00000000E+00  0.00000000E+00
  0.00000000E+00  0.00000000E+00  0.00000000E+00
  0.00000000E+00  0.00000000E+00  0.00000000E+00
  0.00000000E+00  0.00000000E+00  0.00000000E+00
  0.00000000E+00  0.00000000E+00  0.00000000E+00
  0.00000000E+00  0.00000000E+00  0.00000000E+00
  0.00000000E+00  0.00000000E+00  0.00000000E+00
  0.00000000E+00  0.00000000E+00  0.00000000E+00
  0.00000000E+00  0.00000000E+00  0.00000000E+00
  0.00000000E+00  0.00000000E+00  0.00000000E+00
  0.00000000E+00  0.00000000E+00  0.00000000E+00
  0.00000000E+00  0.00000000E+00  0.00000000E+00
  0.00000000E+00  0.00000000E+00  0.00000000E+00
  0.00000000E+00  0.00000000E+00  0.00000000E+00
  0.00000000E+00  0.00000000E+00  0.00000000E+00
  0.00000000E+00  0.00000000E+00  0.00000000E+00
  0.00000000E+00  0.00000000E+00  0.00000000E+00
  0.00000000E+00  0.00000000E+00  0.00000000E+00
  0.00000000E+00  0.00000000E+00  0.00000000E+00
  0.00000000E+00  0.00000000E+00  0.00000000E+00
  0.00000000E+00  0.00000000E+00  0.00000000E+00
  0.00000000E+00  0.00000000E+00  0.00000000E+00
  0.00000000E+00  0.00000000E+00  0.00000000E+00
  0.00000000E+00  0.00000000E+00  0.00000000E+00
  0.00000000E+00  0.00000000E+00  0.00000000E+00
  0.00000000E+00  0.00000000E+00  0.00000000E+00
  0.00000000E+00  0.00000000E+00  0.00000000E+00
  0.00000000E+00  0.00000000E+00  0.00000000E+00
  0.00000000E+00  0.00000000E+00  0.00000000E+00
  0.00000000E+00  0.00000000E+00  0.00000000E+00
  0.00000000E+00  0.00000000E+00  0.00000000E+00
  0.00000000E+00  0.00000000E+00  0.00000000E+00
  0.00000000E+00  0.00000000E+00  0.00000000E+00
  0.00000000E+00  0.00000000E+00  0.00000000E+00
  0.00000000E+00  0.00000000E+00  0.00000000E+00
  0.00000000E+00  0.00000000E+00  0.00000000E+00
  0.00000000E+00  0.00000000E+00  0.00000000E+00
  0.00000000E+00  0.00000000E+00  0.00000000E+00
  0.00000000E+00  0.00000000E+00  0.00000000E+00
  0.00000000E+00  0.00000000E+00  0.00000000E+00
  0.00000000E+00  0.00000000E+00  0.00000000E+00
  0.00000000E+00  0.00000000E+00  0.00000000E+00
  0.00000000E+00  0.00000000E+00  0.00000000E+00
