Type_036 Type_136                       
   1.00000000000000     
    16.8846940542000006    0.0000000000000000    0.0000000000000000
     0.0000000000000000    9.5784099999999999    0.0000000000000000
     0.0000000000000000    0.0000000000000000   16.1690871196999986
   Ty   Ty
    36    36
Direct
  0.7629266095701439  0.1452969540142917  0.1752762668739081
  0.8237654295571986  0.1452969539934088  0.3201499125509102
  0.2256330501026937  0.6452969539725260  0.0928453945721515
  0.2973302850015926  0.6452969540038467  0.2159689649977494
  0.3947991591083522  0.1452969538890088  0.1253716206297284
  0.4697582780024945  0.1452969540038467  0.2477636230012692
  0.9524743000006950  0.6452969540038467  0.1523796499987995
  0.9692895581444674  0.6452969539934088  0.3144674596319632
  0.1249022930015968  0.1452969540038467  0.1841743080023193
  0.0569690397653773  0.1452969539620881  0.3151980430107670
  0.5725162981614957  0.6452969539620881  0.1583415200837592
  0.6421862709974775  0.6452969540038467  0.2795582809986072
  0.9423285099526097  0.0034242678690930  0.2732344735911099
  0.3940347818884575  0.5177088869760240  0.0340771094262138
  0.4248667550014389  0.5131939539965416  0.1907679470006585
  0.4671407869802664  0.4623819760273378  0.3310835314182725
  0.5665337944823818  0.0172381494841005  0.0655819555519628
  0.5972947470014347  0.0131939539965416  0.2225626049979965
  0.0800107689996281  0.5131939539965416  0.1271786320017156
  0.1129499201334738  0.4996827091761560  0.2901006747984596
  0.2524387620005299  0.0131939539965416  0.1589732889971387
  0.2916687660310302  0.9740154155230343  0.3057662799389860
  0.7467990629041594  0.4974808572821559  0.0995863466366131
  0.7697227400023365  0.5131939539965416  0.2543572630015163
  0.9423285099644545  0.2871696401072796  0.2732344735972916
  0.3940347821075889  0.7728850216372010  0.0340771095251711
  0.4248667550014389  0.7773999540007139  0.1907679470006585
  0.4671407869802664  0.8282119319803627  0.3310835314182725
  0.5665337949798683  0.2733557598286112  0.0655819557869819
  0.5972947470014347  0.2773999540007139  0.2225626049979965
  0.0800107689996281  0.7773999540007139  0.1271786320017156
  0.1129499201334738  0.7909111988210995  0.2901006748046413
  0.2524387620005299  0.2773999540007139  0.1589732889971387
  0.2916687660251114  0.3165784924846591  0.3057662799451677
  0.7467990629337748  0.7931130507672961  0.0995863466551654
  0.7697227400023365  0.7773999540007139  0.2543572630015163
  0.9426414412431043  0.1452969539829709  0.3691868083094789
  0.0034215926811925  0.1452969539934088  0.1995472652731820
  0.4741772270021372  0.6452969540038467  0.0870257299984232
  0.5087451840007304  0.6452969540038467  0.2777936780009966
  0.6466052199971131  0.1452969540038467  0.1188203880019429
  0.6870802265093019  0.1452969539934088  0.2796104385690228
  0.1200861784164573  0.6452969540038467  0.0348366798032629
  0.1638891979989197  0.6452969540038467  0.2142043620001388
  0.2888492783075804  0.1452969540038467  0.0660356985212260
  0.3363171909998286  0.1452969540038467  0.2459990199974769
  0.8190332129980220  0.6452969540038467  0.1506150459992810
  0.8477145485226956  0.6452969539934088  0.3191825008297542
  0.7818923327021139  0.2990706849884290  0.0861091678703119
  0.8232416668303415  0.3149007947247995  0.2439227556882102
  0.3117770760015972  0.8135119539986277  0.1191157609976301
  0.3518016906869832  0.7907335143515439  0.2984998642328733
  0.4842050690024990  0.3135119539986277  0.1509104190011499
  0.5287472371511086  0.2841729533502928  0.3275716874236423
  0.0014890469983797  0.8135119539986277  0.2462943919974308
  0.9754791044912636  0.7940972600254099  0.0680495291759158
  0.1403457483619945  0.3229266934073607  0.1104667150518210
  0.1739170399992886  0.3135119539986277  0.2780890500009505
  0.6566330619974821  0.8135119539986277  0.1827050760027547
  0.6951917912531087  0.7905240223795005  0.3521604398533071
  0.3117770760015972  0.4770819539986277  0.1191157609976301
  0.3518016906869832  0.4998603936457116  0.2984998642328733
  0.7818923327258034  0.9915232230401472  0.0861091678765007
  0.8232416668184968  0.9756931132724560  0.2439227556820285
  0.0014890469983797  0.4770819539986277  0.2462943919974308
  0.9754791044912636  0.4964966479822834  0.0680495291821046
  0.4842050690024990  0.9770819539986277  0.1509104190011499
  0.5287472371570345  0.0064209546574006  0.3275716874174606
  0.6566330619974821  0.4770819539986277  0.1827050760027547
  0.6951917912590275  0.5000698856386379  0.3521604398594889
  0.1403457483560686  0.9676672145898948  0.1104667150580099
  0.1739170399992886  0.9770819539986277  0.2780890500009505
 
  0.00000000E+00  0.00000000E+00  0.00000000E+00
  0.00000000E+00  0.00000000E+00  0.00000000E+00
  0.00000000E+00  0.00000000E+00  0.00000000E+00
  0.00000000E+00  0.00000000E+00  0.00000000E+00
  0.00000000E+00  0.00000000E+00  0.00000000E+00
  0.00000000E+00  0.00000000E+00  0.00000000E+00
  0.00000000E+00  0.00000000E+00  0.00000000E+00
  0.00000000E+00  0.00000000E+00  0.00000000E+00
  0.00000000E+00  0.00000000E+00  0.00000000E+00
  0.00000000E+00  0.00000000E+00  0.00000000E+00
  0.00000000E+00  0.00000000E+00  0.00000000E+00
  0.00000000E+00  0.00000000E+00  0.00000000E+00
  0.00000000E+00  0.00000000E+00  0.00000000E+00
  0.00000000E+00  0.00000000E+00  0.00000000E+00
  0.00000000E+00  0.00000000E+00  0.00000000E+00
  0.00000000E+00  0.00000000E+00  0.00000000E+00
  0.00000000E+00  0.00000000E+00  0.00000000E+00
  0.00000000E+00  0.00000000E+00  0.00000000E+00
  0.00000000E+00  0.00000000E+00  0.00000000E+00
  0.00000000E+00  0.00000000E+00  0.00000000E+00
  0.00000000E+00  0.00000000E+00  0.00000000E+00
  0.00000000E+00  0.00000000E+00  0.00000000E+00
  0.00000000E+00  0.00000000E+00  0.00000000E+00
  0.00000000E+00  0.00000000E+00  0.00000000E+00
  0.00000000E+00  0.00000000E+00  0.00000000E+00
  0.00000000E+00  0.00000000E+00  0.00000000E+00
  0.00000000E+00  0.00000000E+00  0.00000000E+00
  0.00000000E+00  0.00000000E+00  0.00000000E+00
  0.00000000E+00  0.00000000E+00  0.00000000E+00
  0.00000000E+00  0.00000000E+00  0.00000000E+00
  0.00000000E+00  0.00000000E+00  0.00000000E+00
  0.00000000E+00  0.00000000E+00  0.00000000E+00
  0.00000000E+00  0.00000000E+00  0.00000000E+00
  0.00000000E+00  0.00000000E+00  0.00000000E+00
  0.00000000E+00  0.00000000E+00  0.00000000E+00
  0.00000000E+00  0.00000000E+00  0.00000000E+00
  0.00000000E+00  0.00000000E+00  0.00000000E+00
  0.00000000E+00  0.00000000E+00  0.00000000E+00
  0.00000000E+00  0.00000000E+00  0.00000000E+00
  0.00000000E+00  0.00000000E+00  0.00000000E+00
  0.00000000E+00  0.00000000E+00  0.00000000E+00
  0.00000000E+00  0.00000000E+00  0.00000000E+00
  0.00000000E+00  0.00000000E+00  0.00000000E+00
  0.00000000E+00  0.00000000E+00  0.00000000E+00
  0.00000000E+00  0.00000000E+00  0.00000000E+00
  0.00000000E+00  0.00000000E+00  0.00000000E+00
  0.00000000E+00  0.00000000E+00  0.00000000E+00
  0.00000000E+00  0.00000000E+00  0.00000000E+00
  0.00000000E+00  0.00000000E+00  0.00000000E+00
  0.00000000E+00  0.00000000E+00  0.00000000E+00
  0.00000000E+00  0.00000000E+00  0.00000000E+00
  0.00000000E+00  0.00000000E+00  0.00000000E+00
  0.00000000E+00  0.00000000E+00  0.00000000E+00
  0.00000000E+00  0.00000000E+00  0.00000000E+00
  0.00000000E+00  0.00000000E+00  0.00000000E+00
  0.00000000E+00  0.00000000E+00  0.00000000E+00
  0.00000000E+00  0.00000000E+00  0.00000000E+00
  0.00000000E+00  0.00000000E+00  0.00000000E+00
  0.00000000E+00  0.00000000E+00  0.00000000E+00
  0.00000000E+00  0.00000000E+00  0.00000000E+00
  0.00000000E+00  0.00000000E+00  0.00000000E+00
  0.00000000E+00  0.00000000E+00  0.00000000E+00
  0.00000000E+00  0.00000000E+00  0.00000000E+00
  0.00000000E+00  0.00000000E+00  0.00000000E+00
  0.00000000E+00  0.00000000E+00  0.00000000E+00
  0.00000000E+00  0.00000000E+00  0.00000000E+00
  0.00000000E+00  0.00000000E+00  0.00000000E+00
  0.00000000E+00  0.00000000E+00  0.00000000E+00
  0.00000000E+00  0.00000000E+00  0.00000000E+00
  0.00000000E+00  0.00000000E+00  0.00000000E+00
  0.00000000E+00  0.00000000E+00  0.00000000E+00
  0.00000000E+00  0.00000000E+00  0.00000000E+00
