Structure 1 made from -120-4.xsd file   
   1.00000000000000     
     6.1690871197000003    1.1673387609999999    0.0000000000000000
     0.0000000000000000   11.2564630381999997    0.0000000000000000
     0.0000000000000000    0.0000000000000000   27.5900794763000015
   Ni   S 
    48    48
Direct
  0.2563094380000024  0.0164585910000028  0.1042609880000001
  0.2563094380000024  0.0164585910000028  0.4514296139999985
  0.0063094380000024  0.2664585830000021  0.2778453009999993
  0.0063094380000024  0.2664585830000021  0.6250139280000013
  0.2563094380000024  0.0164585910000028  0.0125369530000015
  0.2563094380000024  0.0164585910000028  0.3597055800000035
  0.0063094380000024  0.2664585830000021  0.1861212669999972
  0.0063094380000024  0.2664585830000021  0.5332898930000027
  0.1902579380000020  0.2146130850000034  0.0583989710000026
  0.1902579380000020  0.2146130850000034  0.4055675970000010
  0.4402579380000020  0.4646130779999993  0.2319832840000018
  0.4402579380000020  0.4646130779999993  0.5791519100000002
  0.7563094380000024  0.0164585910000028  0.1042609880000001
  0.7563094380000024  0.0164585910000028  0.4514296139999985
  0.5063094380000024  0.2664585830000021  0.2778453009999993
  0.5063094380000024  0.2664585830000021  0.6250139280000013
  0.7563094380000024  0.0164585910000028  0.0125369530000015
  0.7563094380000024  0.0164585910000028  0.3597055800000035
  0.5063094380000024  0.2664585830000021  0.1861212669999972
  0.5063094380000024  0.2664585830000021  0.5332898930000027
  0.6902579380000020  0.2146130850000034  0.0583989710000026
  0.6902579380000020  0.2146130850000034  0.4055675970000010
  0.9402579380000020  0.4646130779999993  0.2319832840000018
  0.9402579380000020  0.4646130779999993  0.5791519100000002
  0.2563094380000024  0.5164585910000028  0.1042609880000001
  0.2563094380000024  0.5164585910000028  0.4514296139999985
  0.0063094380000024  0.7664585830000021  0.2778453009999993
  0.0063094380000024  0.7664585830000021  0.6250139280000013
  0.2563094380000024  0.5164585910000028  0.0125369530000015
  0.2563094380000024  0.5164585910000028  0.3597055800000035
  0.0063094380000024  0.7664585830000021  0.1861212669999972
  0.0063094380000024  0.7664585830000021  0.5332898930000027
  0.1902579380000020  0.7146130850000034  0.0583989710000026
  0.1902579380000020  0.7146130850000034  0.4055675970000010
  0.4402579380000020  0.9646130779999993  0.2319832840000018
  0.4402579380000020  0.9646130779999993  0.5791519100000002
  0.7563094380000024  0.5164585910000028  0.1042609880000001
  0.7563094380000024  0.5164585910000028  0.4514296139999985
  0.5063094380000024  0.7664585830000021  0.2778453009999993
  0.5063094380000024  0.7664585830000021  0.6250139280000013
  0.7563094380000024  0.5164585910000028  0.0125369530000015
  0.7563094380000024  0.5164585910000028  0.3597055800000035
  0.5063094380000024  0.7664585830000021  0.1861212669999972
  0.5063094380000024  0.7664585830000021  0.5332898930000027
  0.6902579380000020  0.7146130850000034  0.0583989710000026
  0.6902579380000020  0.7146130850000034  0.4055675970000010
  0.9402579380000020  0.9646130779999993  0.2319832840000018
  0.9402579380000020  0.9646130779999993  0.5791519100000002
  0.4684041049999976  0.1666175860000010  0.0000000000000000
  0.4684041049999976  0.1666175860000010  0.3471686270000021
  0.2184041049999976  0.4166175789999969  0.1735843129999992
  0.2184041049999976  0.4166175789999969  0.5207529400000013
  0.4684041049999976  0.1666175860000010  0.1167979410000015
  0.4684041049999976  0.1666175860000010  0.4639665680000036
  0.2184041049999976  0.4166175789999969  0.2903822540000007
  0.2184041049999976  0.4166175789999969  0.6375508810000028
  0.0525116049999994  0.4142950789999986  0.0583989710000026
  0.0525116049999994  0.4142950789999986  0.4055675970000010
  0.3025116049999994  0.1642950860000028  0.2319832840000018
  0.3025116049999994  0.1642950860000028  0.5791519100000002
  0.9684041049999976  0.1666175860000010  0.0000000000000000
  0.9684041049999976  0.1666175860000010  0.3471686270000021
  0.7184041049999976  0.4166175789999969  0.1735843129999992
  0.7184041049999976  0.4166175789999969  0.5207529400000013
  0.9684041049999976  0.1666175860000010  0.1167979410000015
  0.9684041049999976  0.1666175860000010  0.4639665680000036
  0.7184041049999976  0.4166175789999969  0.2903822540000007
  0.7184041049999976  0.4166175789999969  0.6375508810000028
  0.5525116049999994  0.4142950789999986  0.0583989710000026
  0.5525116049999994  0.4142950789999986  0.4055675970000010
  0.8025116049999994  0.1642950860000028  0.2319832840000018
  0.8025116049999994  0.1642950860000028  0.5791519100000002
  0.4684041049999976  0.6666175860000010  0.0000000000000000
  0.4684041049999976  0.6666175860000010  0.3471686270000021
  0.2184041049999976  0.9166175789999969  0.1735843129999992
  0.2184041049999976  0.9166175789999969  0.5207529400000013
  0.4684041049999976  0.6666175860000010  0.1167979410000015
  0.4684041049999976  0.6666175860000010  0.4639665680000036
  0.2184041049999976  0.9166175789999969  0.2903822540000007
  0.2184041049999976  0.9166175789999969  0.6375508810000028
  0.0525116049999994  0.9142950789999986  0.0583989710000026
  0.0525116049999994  0.9142950789999986  0.4055675970000010
  0.3025116049999994  0.6642950860000028  0.2319832840000018
  0.3025116049999994  0.6642950860000028  0.5791519100000002
  0.9684041049999976  0.6666175860000010  0.0000000000000000
  0.9684041049999976  0.6666175860000010  0.3471686270000021
  0.7184041049999976  0.9166175789999969  0.1735843129999992
  0.7184041049999976  0.9166175789999969  0.5207529400000013
  0.9684041049999976  0.6666175860000010  0.1167979410000015
  0.9684041049999976  0.6666175860000010  0.4639665680000036
  0.7184041049999976  0.9166175789999969  0.2903822540000007
  0.7184041049999976  0.9166175789999969  0.6375508810000028
  0.5525116049999994  0.9142950789999986  0.0583989710000026
  0.5525116049999994  0.9142950789999986  0.4055675970000010
  0.8025116049999994  0.6642950860000028  0.2319832840000018
  0.8025116049999994  0.6642950860000028  0.5791519100000002
 
  0.00000000E+00  0.00000000E+00  0.00000000E+00
  0.00000000E+00  0.00000000E+00  0.00000000E+00
  0.00000000E+00  0.00000000E+00  0.00000000E+00
  0.00000000E+00  0.00000000E+00  0.00000000E+00
  0.00000000E+00  0.00000000E+00  0.00000000E+00
  0.00000000E+00  0.00000000E+00  0.00000000E+00
  0.00000000E+00  0.00000000E+00  0.00000000E+00
  0.00000000E+00  0.00000000E+00  0.00000000E+00
  0.00000000E+00  0.00000000E+00  0.00000000E+00
  0.00000000E+00  0.00000000E+00  0.00000000E+00
  0.00000000E+00  0.00000000E+00  0.00000000E+00
  0.00000000E+00  0.00000000E+00  0.00000000E+00
  0.00000000E+00  0.00000000E+00  0.00000000E+00
  0.00000000E+00  0.00000000E+00  0.00000000E+00
  0.00000000E+00  0.00000000E+00  0.00000000E+00
  0.00000000E+00  0.00000000E+00  0.00000000E+00
  0.00000000E+00  0.00000000E+00  0.00000000E+00
  0.00000000E+00  0.00000000E+00  0.00000000E+00
  0.00000000E+00  0.00000000E+00  0.00000000E+00
  0.00000000E+00  0.00000000E+00  0.00000000E+00
  0.00000000E+00  0.00000000E+00  0.00000000E+00
  0.00000000E+00  0.00000000E+00  0.00000000E+00
  0.00000000E+00  0.00000000E+00  0.00000000E+00
  0.00000000E+00  0.00000000E+00  0.00000000E+00
  0.00000000E+00  0.00000000E+00  0.00000000E+00
  0.00000000E+00  0.00000000E+00  0.00000000E+00
  0.00000000E+00  0.00000000E+00  0.00000000E+00
  0.00000000E+00  0.00000000E+00  0.00000000E+00
  0.00000000E+00  0.00000000E+00  0.00000000E+00
  0.00000000E+00  0.00000000E+00  0.00000000E+00
  0.00000000E+00  0.00000000E+00  0.00000000E+00
  0.00000000E+00  0.00000000E+00  0.00000000E+00
  0.00000000E+00  0.00000000E+00  0.00000000E+00
  0.00000000E+00  0.00000000E+00  0.00000000E+00
  0.00000000E+00  0.00000000E+00  0.00000000E+00
  0.00000000E+00  0.00000000E+00  0.00000000E+00
  0.00000000E+00  0.00000000E+00  0.00000000E+00
  0.00000000E+00  0.00000000E+00  0.00000000E+00
  0.00000000E+00  0.00000000E+00  0.00000000E+00
  0.00000000E+00  0.00000000E+00  0.00000000E+00
  0.00000000E+00  0.00000000E+00  0.00000000E+00
  0.00000000E+00  0.00000000E+00  0.00000000E+00
  0.00000000E+00  0.00000000E+00  0.00000000E+00
  0.00000000E+00  0.00000000E+00  0.00000000E+00
  0.00000000E+00  0.00000000E+00  0.00000000E+00
  0.00000000E+00  0.00000000E+00  0.00000000E+00
  0.00000000E+00  0.00000000E+00  0.00000000E+00
  0.00000000E+00  0.00000000E+00  0.00000000E+00
  0.00000000E+00  0.00000000E+00  0.00000000E+00
  0.00000000E+00  0.00000000E+00  0.00000000E+00
  0.00000000E+00  0.00000000E+00  0.00000000E+00
  0.00000000E+00  0.00000000E+00  0.00000000E+00
  0.00000000E+00  0.00000000E+00  0.00000000E+00
  0.00000000E+00  0.00000000E+00  0.00000000E+00
  0.00000000E+00  0.00000000E+00  0.00000000E+00
  0.00000000E+00  0.00000000E+00  0.00000000E+00
  0.00000000E+00  0.00000000E+00  0.00000000E+00
  0.00000000E+00  0.00000000E+00  0.00000000E+00
  0.00000000E+00  0.00000000E+00  0.00000000E+00
  0.00000000E+00  0.00000000E+00  0.00000000E+00
  0.00000000E+00  0.00000000E+00  0.00000000E+00
  0.00000000E+00  0.00000000E+00  0.00000000E+00
  0.00000000E+00  0.00000000E+00  0.00000000E+00
  0.00000000E+00  0.00000000E+00  0.00000000E+00
  0.00000000E+00  0.00000000E+00  0.00000000E+00
  0.00000000E+00  0.00000000E+00  0.00000000E+00
  0.00000000E+00  0.00000000E+00  0.00000000E+00
  0.00000000E+00  0.00000000E+00  0.00000000E+00
  0.00000000E+00  0.00000000E+00  0.00000000E+00
  0.00000000E+00  0.00000000E+00  0.00000000E+00
  0.00000000E+00  0.00000000E+00  0.00000000E+00
  0.00000000E+00  0.00000000E+00  0.00000000E+00
  0.00000000E+00  0.00000000E+00  0.00000000E+00
  0.00000000E+00  0.00000000E+00  0.00000000E+00
  0.00000000E+00  0.00000000E+00  0.00000000E+00
  0.00000000E+00  0.00000000E+00  0.00000000E+00
  0.00000000E+00  0.00000000E+00  0.00000000E+00
  0.00000000E+00  0.00000000E+00  0.00000000E+00
  0.00000000E+00  0.00000000E+00  0.00000000E+00
  0.00000000E+00  0.00000000E+00  0.00000000E+00
  0.00000000E+00  0.00000000E+00  0.00000000E+00
  0.00000000E+00  0.00000000E+00  0.00000000E+00
  0.00000000E+00  0.00000000E+00  0.00000000E+00
  0.00000000E+00  0.00000000E+00  0.00000000E+00
  0.00000000E+00  0.00000000E+00  0.00000000E+00
  0.00000000E+00  0.00000000E+00  0.00000000E+00
  0.00000000E+00  0.00000000E+00  0.00000000E+00
  0.00000000E+00  0.00000000E+00  0.00000000E+00
  0.00000000E+00  0.00000000E+00  0.00000000E+00
  0.00000000E+00  0.00000000E+00  0.00000000E+00
  0.00000000E+00  0.00000000E+00  0.00000000E+00
  0.00000000E+00  0.00000000E+00  0.00000000E+00
  0.00000000E+00  0.00000000E+00  0.00000000E+00
  0.00000000E+00  0.00000000E+00  0.00000000E+00
  0.00000000E+00  0.00000000E+00  0.00000000E+00
  0.00000000E+00  0.00000000E+00  0.00000000E+00
