Structure 1 made from -120-4.xsd file
1.0
        6.1690871197        1.1673387610        0.0000000000
        0.0000000000       11.2564630382        0.0000000000
        0.0000000000        0.0000000000       27.5900794763
   Ni    S
   48   48
Direct
     0.256309438     0.016458591     0.104260988
     0.256309438     0.016458591     0.451429614
     0.006309438     0.266458583     0.277845301
     0.006309438     0.266458583     0.625013928
     0.256309438     0.016458591     0.012536953
     0.256309438     0.016458591     0.359705580
     0.006309438     0.266458583     0.186121267
     0.006309438     0.266458583     0.533289893
     0.190257938     0.214613085     0.058398971
     0.190257938     0.214613085     0.405567597
     0.440257938     0.464613078     0.231983284
     0.440257938     0.464613078     0.579151910
     0.756309438     0.016458591     0.104260988
     0.756309438     0.016458591     0.451429614
     0.506309438     0.266458583     0.277845301
     0.506309438     0.266458583     0.625013928
     0.756309438     0.016458591     0.012536953
     0.756309438     0.016458591     0.359705580
     0.506309438     0.266458583     0.186121267
     0.506309438     0.266458583     0.533289893
     0.690257938     0.214613085     0.058398971
     0.690257938     0.214613085     0.405567597
     0.940257938     0.464613078     0.231983284
     0.940257938     0.464613078     0.579151910
     0.256309438     0.516458591     0.104260988
     0.256309438     0.516458591     0.451429614
     0.006309438     0.766458583     0.277845301
     0.006309438     0.766458583     0.625013928
     0.256309438     0.516458591     0.012536953
     0.256309438     0.516458591     0.359705580
     0.006309438     0.766458583     0.186121267
     0.006309438     0.766458583     0.533289893
     0.190257938     0.714613085     0.058398971
     0.190257938     0.714613085     0.405567597
     0.440257938     0.964613078     0.231983284
     0.440257938     0.964613078     0.579151910
     0.756309438     0.516458591     0.104260988
     0.756309438     0.516458591     0.451429614
     0.506309438     0.766458583     0.277845301
     0.506309438     0.766458583     0.625013928
     0.756309438     0.516458591     0.012536953
     0.756309438     0.516458591     0.359705580
     0.506309438     0.766458583     0.186121267
     0.506309438     0.766458583     0.533289893
     0.690257938     0.714613085     0.058398971
     0.690257938     0.714613085     0.405567597
     0.940257938     0.964613078     0.231983284
     0.940257938     0.964613078     0.579151910
     0.468404105     0.166617586     0.000000000
     0.468404105     0.166617586     0.347168627
     0.218404105     0.416617579     0.173584313
     0.218404105     0.416617579     0.520752940
     0.468404105     0.166617586     0.116797941
     0.468404105     0.166617586     0.463966568
     0.218404105     0.416617579     0.290382254
     0.218404105     0.416617579     0.637550881
     0.052511605     0.414295079     0.058398971
     0.052511605     0.414295079     0.405567597
     0.302511605     0.164295086     0.231983284
     0.302511605     0.164295086     0.579151910
     0.968404105     0.166617586     0.000000000
     0.968404105     0.166617586     0.347168627
     0.718404105     0.416617579     0.173584313
     0.718404105     0.416617579     0.520752940
     0.968404105     0.166617586     0.116797941
     0.968404105     0.166617586     0.463966568
     0.718404105     0.416617579     0.290382254
     0.718404105     0.416617579     0.637550881
     0.552511605     0.414295079     0.058398971
     0.552511605     0.414295079     0.405567597
     0.802511605     0.164295086     0.231983284
     0.802511605     0.164295086     0.579151910
     0.468404105     0.666617586     0.000000000
     0.468404105     0.666617586     0.347168627
     0.218404105     0.916617579     0.173584313
     0.218404105     0.916617579     0.520752940
     0.468404105     0.666617586     0.116797941
     0.468404105     0.666617586     0.463966568
     0.218404105     0.916617579     0.290382254
     0.218404105     0.916617579     0.637550881
     0.052511605     0.914295079     0.058398971
     0.052511605     0.914295079     0.405567597
     0.302511605     0.664295086     0.231983284
     0.302511605     0.664295086     0.579151910
     0.968404105     0.666617586     0.000000000
     0.968404105     0.666617586     0.347168627
     0.718404105     0.916617579     0.173584313
     0.718404105     0.916617579     0.520752940
     0.968404105     0.666617586     0.116797941
     0.968404105     0.666617586     0.463966568
     0.718404105     0.916617579     0.290382254
     0.718404105     0.916617579     0.637550881
     0.552511605     0.914295079     0.058398971
     0.552511605     0.914295079     0.405567597
     0.802511605     0.664295086     0.231983284
     0.802511605     0.664295086     0.579151910
