Type_026 Type_126 
1.0
1.1256463038200000e+01 0.0000000000000000e+00 0.0000000000000000e+00 
0.0000000000000000e+00 9.5784099999999999e+00 0.0000000000000000e+00 
0.0000000000000000e+00 0.0000000000000000e+00 1.7192492404700001e+01 
Type_0 Type_1 
26 26 
Cartesian
   4.9453580763    4.4433094293    2.7995183711
   5.4151923024    4.5258846305    5.5403723944
   1.1628711008    0.2695449556    2.1642865611
   2.4983971344    9.2958171602    4.1856470828
   4.9453580763    1.9126360369    2.7995183711
   5.4146889248    1.8306278420    5.5415184807
   1.1649366964    6.0820469142    2.1717358978
   2.4996218172    6.6390278411    4.1869189038
   1.4705409881    3.1779727331    2.3920409139
   2.0457381700    3.1781968212    5.1450219634
   2.7360749031    7.9668263322    1.8385516194
   4.5764913469    7.9671777331    3.9343126834
   3.3623610270    7.9677504696    6.1119092903
  10.5735895954    4.4433094293    2.7995183711
  11.0372894984    4.5114742704    5.5350426824
   7.1399828424    0.4045438324    2.3431374539
   8.1507376277    9.2378593660    4.3079833466
  10.5735895954    1.9126360369    2.7995183711
  11.0404070599    1.8512899015    5.5379434165
   7.1449693677    5.9512688211    2.3403096749
   8.1477527556    6.7077535162    4.3023558576
   7.0987725072    3.1779727331    2.3920409139
   7.6824418858    3.1779727331    5.4765844702
  10.6711050401    7.9655402469    1.6423572069
  10.2047228660    7.9671777331    3.9343126834
   9.0950106406    7.9710765231    6.2104093820
   0.4994195244    1.8498933840    1.1059913813
   1.2549722354    1.5667404950    4.1079488450
   3.7772532156    6.3559454950    2.5656770583
   4.2952113044    6.3547106853    5.3418318468
   0.4998525118    4.5069855321    1.1065529716
   1.2549722354    4.7892049713    4.1079488450
   0.7626960135    3.1817388496    6.7396667738
   3.7772532156    9.5784099713    2.5656770583
   4.2946838855    0.0020348521    5.3409208264
   3.5260685717    3.1780193494    1.9322915649
   4.1411267131    3.1779727331    4.6268153431
   1.1254112436    7.9798412155    0.5527284722
   1.0351763544    7.9671777331    3.0845435563
   6.2030189361    1.7514919661    1.1832174903
   6.8832037545    1.5667404950    4.1079488450
   6.9407729746    1.8870659127    6.8480942098
   9.4054847347    6.3559454950    2.5656770583
   9.9457712871    6.3506751369    5.3782489044
   6.2019654699    4.6027861137    1.1838268760
   6.8832037545    4.7892049713    4.1079488450
   6.9398800418    4.4675902422    6.8487593656
   9.4054847347    9.5784099713    2.5656770583
   9.9581616430    0.0122350375    5.3800837407
   9.1433536849    3.1781790106    1.9283660887
   9.7693582322    3.1779727331    4.6268153431
   6.6634078735    7.9671777331    3.0845435563
