Type_036 Type_136 
1.0
1.6884694054200001e+01 0.0000000000000000e+00 0.0000000000000000e+00 
0.0000000000000000e+00 9.5784099999999999e+00 0.0000000000000000e+00 
0.0000000000000000e+00 0.0000000000000000e+00 1.6169087119699999e+01 
Type_0 Type_1 
36 36 
Cartesian
  13.1708432418    1.3917137972    1.9497492410
  13.4954572702    1.4076375809    4.6022522003
   3.6445836971    6.4209249844    1.5414335349
   5.0203308953    6.1809187972    3.4920210102
   6.5347948236    1.6078459821    2.0331789416
   7.9317248035    1.3917137972    4.0061116054
  16.0822371500    6.1809187972    2.4638398361
  16.3508831835    6.1793369113    5.0832289607
   2.1089370040    1.3917137972    2.9779304313
   1.8415349069    1.3912368138    5.3249115551
  10.8431187116    6.1809187972    4.5202022005
  15.3451612881    0.0939736855    1.8707351984
  15.9329816507    0.1205711535    4.3839754720
   7.0613583838    3.9228804331    0.9393887665
   7.1737451720    4.9155821009    3.0845435547
   7.8582425999    4.5160458947    5.4201365680
  10.8148961688    9.0499015068    1.3461168657
  10.0851390633    0.1263771009    3.5986341498
   1.3509573556    4.9155821009    2.0563623806
   1.8995184611    4.8069413835    4.7128152201
   4.2623512638    0.1263771009    2.5704529595
   4.9091011521    9.3870080252    5.0151564902
  12.9965329715    4.9155821009    4.1127247450
  15.4236938643    2.7409828210    1.9438604954
  15.9059904151    2.6637186099    4.3977193438
   6.1344999821    6.2035965180    1.0138133045
   7.1737451720    7.4462554934    3.0845435547
   7.8628614150    7.8582108510    5.3975511043
   8.9494638553    1.3663014570    1.4411421068
  10.0851390633    2.6570504934    3.5986341498
   1.3509573556    7.4462554934    2.0563623806
   1.9010451950    7.5544535214    4.7112962759
   4.2623512638    2.6570504934    2.5704529595
   4.9257991596    3.0087158852    4.9814921784
  13.1194805146    8.2258993001    1.8773084777
  12.9965329715    7.4462554934    4.1127247450
  16.7558137724    1.3937709970    5.7856914837
  16.7405191299    1.3917137972    2.9493983955
   8.0593351620    5.7499981975    1.4140084152
   8.5900067834    6.1809187972    4.4916701809
  10.9177313135    1.3917137972    1.9212172052
  11.4310742063    1.4025566785    4.6210630694
   1.8985893382    6.1813941451    0.5278905755
   2.7672189670    6.1809187972    3.4634889906
   4.7710930011    1.3891913696    1.0212542073
   5.6786128752    1.3917137972    3.9775795857
  13.8807733669    6.3232053568    2.5546645341
  14.3011480315    6.1682061140    5.1850194135
  13.9135271742    2.7151390213    0.6229698975
  13.9984422659    3.0029460353    3.4682648862
   5.2642605414    7.7921510353    1.9259931169
   5.9231492237    7.6305270216    4.7802630267
   8.1756544496    3.0029460353    2.4400837121
   8.8647594708    2.7852756431    5.2694503897
   0.0251421030    7.7921510353    3.9823554813
  16.3225378096    7.8950783645    1.3068238185
   2.3589041541    3.0843355971    1.7859663942
   2.9365360112    3.0029460353    4.4964460765
  11.2360806492    7.8553056833    2.9577583313
  11.6704007930    7.6509695414    5.6408261835
   5.2642605414    4.5696865590    1.9259931169
   5.9128201353    4.7893897745    4.8422400858
  13.7705839307    0.0091085097    0.5185424534
  13.9984422659    9.3588915590    3.4682648862
   0.0251421030    4.5696865590    3.9823554813
  16.3444892393    4.5008813843    1.2859592494
   8.1756544496    9.3588915590    2.4400837121
   8.8668841618    0.0118222637    5.2735440566
  11.1116941051    4.4732134476    3.3479587524
  11.8582711480    4.9646545802    5.7835926899
   2.3778008437    9.2638211939    1.7781748062
   2.9365360112    9.3588915590    4.4964460765
