Structure 1 made from 021-3.xsd file    
   1.00000000000000     
    11.2351097479999993    3.6905792347999999    0.0000000000000000
     0.0000000000000000   11.8257374458999998    0.0000000000000000
     0.0000000000000000    0.0000000000000000   17.0005391643000010
   Ni   S 
    36    36
Direct
  0.2875026939999969  0.3304030500000010  0.0000000000000000
  0.4240882010000036  0.1938175430000015  0.1472373679999990
  0.0606737230000007  0.0572320349999984  0.2944747370000016
  0.1161207869999998  0.1338879680000034  0.0694353760000013
  0.2527062939999993  0.4973024459999991  0.2166727440000003
  0.3892918009999988  0.3607169380000030  0.3639101130000029
  0.4196056899999974  0.4625060460000014  0.0000000000000000
  0.0561912120000017  0.3259205390000020  0.1472373679999990
  0.1927767190000012  0.1893350309999988  0.2944747370000016
  0.7875026939999969  0.3304030500000010  0.0000000000000000
  0.9240882010000036  0.1938175430000015  0.1472373679999990
  0.5606737230000007  0.0572320349999984  0.2944747370000016
  0.6161207869999998  0.1338879680000034  0.0694353760000013
  0.7527062939999993  0.4973024459999991  0.2166727440000003
  0.8892918009999988  0.3607169380000030  0.3639101130000029
  0.9196056899999974  0.4625060460000014  0.0000000000000000
  0.5561912120000017  0.3259205390000020  0.1472373679999990
  0.6927767190000012  0.1893350309999988  0.2944747370000016
  0.2875026939999969  0.8304030500000010  0.0000000000000000
  0.4240882010000036  0.6938175430000015  0.1472373679999990
  0.0606737230000007  0.5572320349999984  0.2944747370000016
  0.1161207869999998  0.6338879680000034  0.0694353760000013
  0.2527062939999993  0.9973024459999991  0.2166727440000003
  0.3892918009999988  0.8607169380000030  0.3639101130000029
  0.4196056899999974  0.9625060460000014  0.0000000000000000
  0.0561912120000017  0.8259205390000020  0.1472373679999990
  0.1927767190000012  0.6893350309999988  0.2944747370000016
  0.7875026939999969  0.8304030500000010  0.0000000000000000
  0.9240882010000036  0.6938175430000015  0.1472373679999990
  0.5606737230000007  0.5572320349999984  0.2944747370000016
  0.6161207869999998  0.6338879680000034  0.0694353760000013
  0.7527062939999993  0.9973024459999991  0.2166727440000003
  0.8892918009999988  0.8607169380000030  0.3639101130000029
  0.9196056899999974  0.9625060460000014  0.0000000000000000
  0.5561912120000017  0.8259205390000020  0.1472373679999990
  0.6927767190000012  0.6893350309999988  0.2944747370000016
  0.1047397279999984  0.3134840210000007  0.0182384889999980
  0.2413252360000016  0.1768985140000012  0.1654758569999970
  0.3779107430000010  0.0403130070000017  0.3127132259999996
  0.3602126480000010  0.3897960919999974  0.1173086249999997
  0.4967981550000005  0.2532105840000014  0.2645459929999987
  0.1333836769999976  0.1166250770000019  0.4117833609999977
  0.4365247180000011  0.1452690260000011  0.0182384889999980
  0.0731102410000020  0.0086835190000016  0.1654758569999970
  0.2096957480000015  0.3720979969999973  0.3127132259999996
  0.6047397279999984  0.3134840210000007  0.0182384889999980
  0.7413252360000016  0.1768985140000012  0.1654758569999970
  0.8779107430000010  0.0403130070000017  0.3127132259999996
  0.8602126480000010  0.3897960919999974  0.1173086249999997
  0.9967981550000005  0.2532105840000014  0.2645459929999987
  0.6333836769999976  0.1166250770000019  0.4117833609999977
  0.9365247180000011  0.1452690260000011  0.0182384889999980
  0.5731102410000020  0.0086835190000016  0.1654758569999970
  0.7096957480000015  0.3720979969999973  0.3127132259999996
  0.1047397279999984  0.8134840210000007  0.0182384889999980
  0.2413252360000016  0.6768985140000012  0.1654758569999970
  0.3779107430000010  0.5403130070000017  0.3127132259999996
  0.3602126480000010  0.8897960919999974  0.1173086249999997
  0.4967981550000005  0.7532105840000014  0.2645459929999987
  0.1333836769999976  0.6166250770000019  0.4117833609999977
  0.4365247180000011  0.6452690260000011  0.0182384889999980
  0.0731102410000020  0.5086835190000016  0.1654758569999970
  0.2096957480000015  0.8720979969999973  0.3127132259999996
  0.6047397279999984  0.8134840210000007  0.0182384889999980
  0.7413252360000016  0.6768985140000012  0.1654758569999970
  0.8779107430000010  0.5403130070000017  0.3127132259999996
  0.8602126480000010  0.8897960919999974  0.1173086249999997
  0.9967981550000005  0.7532105840000014  0.2645459929999987
  0.6333836769999976  0.6166250770000019  0.4117833609999977
  0.9365247180000011  0.6452690260000011  0.0182384889999980
  0.5731102410000020  0.5086835190000016  0.1654758569999970
  0.7096957480000015  0.8720979969999973  0.3127132259999996
 
  0.00000000E+00  0.00000000E+00  0.00000000E+00
  0.00000000E+00  0.00000000E+00  0.00000000E+00
  0.00000000E+00  0.00000000E+00  0.00000000E+00
  0.00000000E+00  0.00000000E+00  0.00000000E+00
  0.00000000E+00  0.00000000E+00  0.00000000E+00
  0.00000000E+00  0.00000000E+00  0.00000000E+00
  0.00000000E+00  0.00000000E+00  0.00000000E+00
  0.00000000E+00  0.00000000E+00  0.00000000E+00
  0.00000000E+00  0.00000000E+00  0.00000000E+00
  0.00000000E+00  0.00000000E+00  0.00000000E+00
  0.00000000E+00  0.00000000E+00  0.00000000E+00
  0.00000000E+00  0.00000000E+00  0.00000000E+00
  0.00000000E+00  0.00000000E+00  0.00000000E+00
  0.00000000E+00  0.00000000E+00  0.00000000E+00
  0.00000000E+00  0.00000000E+00  0.00000000E+00
  0.00000000E+00  0.00000000E+00  0.00000000E+00
  0.00000000E+00  0.00000000E+00  0.00000000E+00
  0.00000000E+00  0.00000000E+00  0.00000000E+00
  0.00000000E+00  0.00000000E+00  0.00000000E+00
  0.00000000E+00  0.00000000E+00  0.00000000E+00
  0.00000000E+00  0.00000000E+00  0.00000000E+00
  0.00000000E+00  0.00000000E+00  0.00000000E+00
  0.00000000E+00  0.00000000E+00  0.00000000E+00
  0.00000000E+00  0.00000000E+00  0.00000000E+00
  0.00000000E+00  0.00000000E+00  0.00000000E+00
  0.00000000E+00  0.00000000E+00  0.00000000E+00
  0.00000000E+00  0.00000000E+00  0.00000000E+00
  0.00000000E+00  0.00000000E+00  0.00000000E+00
  0.00000000E+00  0.00000000E+00  0.00000000E+00
  0.00000000E+00  0.00000000E+00  0.00000000E+00
  0.00000000E+00  0.00000000E+00  0.00000000E+00
  0.00000000E+00  0.00000000E+00  0.00000000E+00
  0.00000000E+00  0.00000000E+00  0.00000000E+00
  0.00000000E+00  0.00000000E+00  0.00000000E+00
  0.00000000E+00  0.00000000E+00  0.00000000E+00
  0.00000000E+00  0.00000000E+00  0.00000000E+00
  0.00000000E+00  0.00000000E+00  0.00000000E+00
  0.00000000E+00  0.00000000E+00  0.00000000E+00
  0.00000000E+00  0.00000000E+00  0.00000000E+00
  0.00000000E+00  0.00000000E+00  0.00000000E+00
  0.00000000E+00  0.00000000E+00  0.00000000E+00
  0.00000000E+00  0.00000000E+00  0.00000000E+00
  0.00000000E+00  0.00000000E+00  0.00000000E+00
  0.00000000E+00  0.00000000E+00  0.00000000E+00
  0.00000000E+00  0.00000000E+00  0.00000000E+00
  0.00000000E+00  0.00000000E+00  0.00000000E+00
  0.00000000E+00  0.00000000E+00  0.00000000E+00
  0.00000000E+00  0.00000000E+00  0.00000000E+00
  0.00000000E+00  0.00000000E+00  0.00000000E+00
  0.00000000E+00  0.00000000E+00  0.00000000E+00
  0.00000000E+00  0.00000000E+00  0.00000000E+00
  0.00000000E+00  0.00000000E+00  0.00000000E+00
  0.00000000E+00  0.00000000E+00  0.00000000E+00
  0.00000000E+00  0.00000000E+00  0.00000000E+00
  0.00000000E+00  0.00000000E+00  0.00000000E+00
  0.00000000E+00  0.00000000E+00  0.00000000E+00
  0.00000000E+00  0.00000000E+00  0.00000000E+00
  0.00000000E+00  0.00000000E+00  0.00000000E+00
  0.00000000E+00  0.00000000E+00  0.00000000E+00
  0.00000000E+00  0.00000000E+00  0.00000000E+00
  0.00000000E+00  0.00000000E+00  0.00000000E+00
  0.00000000E+00  0.00000000E+00  0.00000000E+00
  0.00000000E+00  0.00000000E+00  0.00000000E+00
  0.00000000E+00  0.00000000E+00  0.00000000E+00
  0.00000000E+00  0.00000000E+00  0.00000000E+00
  0.00000000E+00  0.00000000E+00  0.00000000E+00
  0.00000000E+00  0.00000000E+00  0.00000000E+00
  0.00000000E+00  0.00000000E+00  0.00000000E+00
  0.00000000E+00  0.00000000E+00  0.00000000E+00
  0.00000000E+00  0.00000000E+00  0.00000000E+00
  0.00000000E+00  0.00000000E+00  0.00000000E+00
  0.00000000E+00  0.00000000E+00  0.00000000E+00
