Structure 18 made from 001-2.xsd file
1.0
        8.2951463879       -4.7892050000        0.0000000000
        0.0000000000        9.5784100000        0.0000000000
        0.0000000000        0.0000000000       19.4178400000
   Ni    S
   27   27
Direct
     0.458432433     0.541567567     0.076907120
     0.458432433     0.541567567     0.238577007
     0.458432433     0.541567567     0.400246894
     0.125099100     0.874900900     0.130797082
     0.125099100     0.874900900     0.292466969
     0.125099100     0.874900900     0.454136856
     0.791765767     0.208234233     0.023017157
     0.791765767     0.208234233     0.184687044
     0.791765767     0.208234233     0.346356932
     0.458432433     0.277361567     0.076907120
     0.458432433     0.277361567     0.238577007
     0.458432433     0.277361567     0.400246894
     0.125099100     0.610694900     0.130797082
     0.125099100     0.610694900     0.292466969
     0.125099100     0.610694900     0.454136856
     0.791765767     0.944028233     0.023017157
     0.791765767     0.944028233     0.184687044
     0.791765767     0.944028233     0.346356932
     0.722638433     0.541567567     0.076907120
     0.722638433     0.541567567     0.238577007
     0.722638433     0.541567567     0.400246894
     0.389305100     0.874900900     0.130797082
     0.389305100     0.874900900     0.292466969
     0.389305100     0.874900900     0.454136856
     0.055971767     0.208234233     0.023017157
     0.055971767     0.208234233     0.184687044
     0.055971767     0.208234233     0.346356932
     0.658644433     0.341355567     0.000000000
     0.658644433     0.341355567     0.161669887
     0.658644433     0.341355567     0.323339774
     0.658644433     0.341355567     0.485009661
     0.325311100     0.674688900     0.053889962
     0.325311100     0.674688900     0.215559849
     0.325311100     0.674688900     0.377229737
     0.991977767     0.008022233     0.107779925
     0.991977767     0.008022233     0.269449812
     0.991977767     0.008022233     0.431119699
     0.658644433     0.677785567    -0.000000000
     0.658644433     0.677785567     0.161669887
     0.658644433     0.677785567     0.323339774
     0.658644433     0.677785567     0.485009661
     0.325311100     0.011118900     0.215559849
     0.325311100     0.011118900     0.377229737
     0.991977767     0.344452233     0.107779925
     0.991977767     0.344452233     0.269449812
     0.991977767     0.344452233     0.431119699
     0.322214433     0.341355567    -0.000000000
     0.322214433     0.341355567     0.161669887
     0.322214433     0.341355567     0.323339774
     0.322214433     0.341355567     0.485009661
     0.988881100     0.674688900     0.215559849
     0.988881100     0.674688900     0.377229737
     0.655547767     0.008022233     0.107779925
     0.655547767     0.008022233     0.269449812
