Structure 2 made from 001-2.xsd file    
   1.00000000000000     
     8.2951463878999991   -4.7892049999999999    0.0000000000000000
     0.0000000000000000    9.5784099999999999    0.0000000000000000
     0.0000000000000000    0.0000000000000000   19.4178400000000018
   Ni   S 
    27    27
Direct
  0.4584324329999987  0.5415675670000013  0.0769071200000013
  0.4584324329999987  0.5415675670000013  0.2385770070000035
  0.4584324329999987  0.5415675670000013  0.4002468939999986
  0.1250990999999999  0.8749009000000001  0.1307970820000008
  0.1250990999999999  0.8749009000000001  0.2924669690000030
  0.1250990999999999  0.8749009000000001  0.4541368559999981
  0.7917657670000011  0.2082342329999989  0.0230171569999982
  0.7917657670000011  0.2082342329999989  0.1846870440000004
  0.7917657670000011  0.2082342329999989  0.3463569319999991
  0.4584324329999987  0.2773615669999998  0.0769071200000013
  0.4584324329999987  0.2773615669999998  0.2385770070000035
  0.4584324329999987  0.2773615669999998  0.4002468939999986
  0.1250990999999999  0.6106948999999986  0.1307970820000008
  0.1250990999999999  0.6106948999999986  0.2924669690000030
  0.1250990999999999  0.6106948999999986  0.4541368559999981
  0.7917657670000011  0.9440282329999974  0.0230171569999982
  0.7917657670000011  0.9440282329999974  0.1846870440000004
  0.7917657670000011  0.9440282329999974  0.3463569319999991
  0.7226384330000002  0.5415675670000013  0.0769071200000013
  0.7226384330000002  0.5415675670000013  0.2385770070000035
  0.7226384330000002  0.5415675670000013  0.4002468939999986
  0.3893051000000014  0.8749009000000001  0.1307970820000008
  0.3893051000000014  0.8749009000000001  0.2924669690000030
  0.3893051000000014  0.8749009000000001  0.4541368559999981
  0.0559717670000026  0.2082342329999989  0.0230171569999982
  0.0559717670000026  0.2082342329999989  0.1846870440000004
  0.0559717670000026  0.2082342329999989  0.3463569319999991
  0.6586444329999992  0.3413555670000008  0.0000000000000000
  0.6586444329999992  0.3413555670000008  0.1616698870000022
  0.6586444329999992  0.3413555670000008  0.3233397739999972
  0.6586444329999992  0.3413555670000008  0.4850096609999994
  0.3253111000000004  0.6746888999999996  0.0538899619999995
  0.3253111000000004  0.6746888999999996  0.2155598490000017
  0.3253111000000004  0.6746888999999996  0.3772297370000004
  0.9919777670000016  0.0080222329999984  0.1077799250000027
  0.9919777670000016  0.0080222329999984  0.2694498119999977
  0.9919777670000016  0.0080222329999984  0.4311196989999999
  0.6586444329999992  0.6777855670000008  0.0000000000000000
  0.6586444329999992  0.6777855670000008  0.1616698870000022
  0.6586444329999992  0.6777855670000008  0.3233397739999972
  0.3253111000000004  0.0111188999999996  0.0538899619999995
  0.3253111000000004  0.0111188999999996  0.2155598490000017
  0.3253111000000004  0.0111188999999996  0.3772297370000004
  0.9919777670000016  0.3444522329999984  0.1077799250000027
  0.9919777670000016  0.3444522329999984  0.2694498119999977
  0.3222144329999992  0.3413555670000008  0.0000000000000000
  0.3222144329999992  0.3413555670000008  0.1616698870000022
  0.3222144329999992  0.3413555670000008  0.3233397739999972
  0.3222144329999992  0.3413555670000008  0.4850096609999994
  0.9888811000000004  0.6746888999999996  0.0538899619999995
  0.9888811000000004  0.6746888999999996  0.2155598490000017
  0.9888811000000004  0.6746888999999996  0.3772297370000004
  0.6555477670000016  0.0080222329999984  0.1077799250000027
  0.6555477670000016  0.0080222329999984  0.2694498119999977
 
  0.00000000E+00  0.00000000E+00  0.00000000E+00
  0.00000000E+00  0.00000000E+00  0.00000000E+00
  0.00000000E+00  0.00000000E+00  0.00000000E+00
  0.00000000E+00  0.00000000E+00  0.00000000E+00
  0.00000000E+00  0.00000000E+00  0.00000000E+00
  0.00000000E+00  0.00000000E+00  0.00000000E+00
  0.00000000E+00  0.00000000E+00  0.00000000E+00
  0.00000000E+00  0.00000000E+00  0.00000000E+00
  0.00000000E+00  0.00000000E+00  0.00000000E+00
  0.00000000E+00  0.00000000E+00  0.00000000E+00
  0.00000000E+00  0.00000000E+00  0.00000000E+00
  0.00000000E+00  0.00000000E+00  0.00000000E+00
  0.00000000E+00  0.00000000E+00  0.00000000E+00
  0.00000000E+00  0.00000000E+00  0.00000000E+00
  0.00000000E+00  0.00000000E+00  0.00000000E+00
  0.00000000E+00  0.00000000E+00  0.00000000E+00
  0.00000000E+00  0.00000000E+00  0.00000000E+00
  0.00000000E+00  0.00000000E+00  0.00000000E+00
  0.00000000E+00  0.00000000E+00  0.00000000E+00
  0.00000000E+00  0.00000000E+00  0.00000000E+00
  0.00000000E+00  0.00000000E+00  0.00000000E+00
  0.00000000E+00  0.00000000E+00  0.00000000E+00
  0.00000000E+00  0.00000000E+00  0.00000000E+00
  0.00000000E+00  0.00000000E+00  0.00000000E+00
  0.00000000E+00  0.00000000E+00  0.00000000E+00
  0.00000000E+00  0.00000000E+00  0.00000000E+00
  0.00000000E+00  0.00000000E+00  0.00000000E+00
  0.00000000E+00  0.00000000E+00  0.00000000E+00
  0.00000000E+00  0.00000000E+00  0.00000000E+00
  0.00000000E+00  0.00000000E+00  0.00000000E+00
  0.00000000E+00  0.00000000E+00  0.00000000E+00
  0.00000000E+00  0.00000000E+00  0.00000000E+00
  0.00000000E+00  0.00000000E+00  0.00000000E+00
  0.00000000E+00  0.00000000E+00  0.00000000E+00
  0.00000000E+00  0.00000000E+00  0.00000000E+00
  0.00000000E+00  0.00000000E+00  0.00000000E+00
  0.00000000E+00  0.00000000E+00  0.00000000E+00
  0.00000000E+00  0.00000000E+00  0.00000000E+00
  0.00000000E+00  0.00000000E+00  0.00000000E+00
  0.00000000E+00  0.00000000E+00  0.00000000E+00
  0.00000000E+00  0.00000000E+00  0.00000000E+00
  0.00000000E+00  0.00000000E+00  0.00000000E+00
  0.00000000E+00  0.00000000E+00  0.00000000E+00
  0.00000000E+00  0.00000000E+00  0.00000000E+00
  0.00000000E+00  0.00000000E+00  0.00000000E+00
  0.00000000E+00  0.00000000E+00  0.00000000E+00
  0.00000000E+00  0.00000000E+00  0.00000000E+00
  0.00000000E+00  0.00000000E+00  0.00000000E+00
  0.00000000E+00  0.00000000E+00  0.00000000E+00
  0.00000000E+00  0.00000000E+00  0.00000000E+00
  0.00000000E+00  0.00000000E+00  0.00000000E+00
  0.00000000E+00  0.00000000E+00  0.00000000E+00
  0.00000000E+00  0.00000000E+00  0.00000000E+00
  0.00000000E+00  0.00000000E+00  0.00000000E+00
