Type_037 Type_137 
1.0
1.6884694054200001e+01 0.0000000000000000e+00 0.0000000000000000e+00 
0.0000000000000000e+00 9.5784099999999999e+00 0.0000000000000000e+00 
0.0000000000000000e+00 0.0000000000000000e+00 1.6654645685100000e+01 
Type_0 Type_1 
37 37 
Cartesian
  13.1708432080    1.3917138259    2.0563623765
  13.5094118395    1.3753710967    4.7141072197
   3.6045369953    6.3319154914    1.6450015556
   5.0203308784    6.1809188259    3.5986341464
   6.5940386865    1.2430386284    2.1857589876
   7.9317247697    1.3917138259    4.1127247530
  16.0822371162    6.1809188259    2.5704529665
  16.4419056461    6.1827696603    5.2816048796
   2.9196847845    1.3862863857    0.7768946722
   2.1089369702    1.3917138259    3.0845435564
   1.8934399834    1.3922531380    5.4575634669
   9.6088462616    6.1272521163    2.6964818055
  10.8431186779    6.1809188259    4.6268153429
  15.4169891410    0.0478551964    2.0479481625
  15.9008840460    0.1196880418    4.5040952435
   7.1737451382    4.9155821297    3.1911566886
   7.8646551208    4.4522037692    5.4820766804
   8.9578135090    1.3953509162    1.5589334322
  10.0851390464    0.1263771297    3.7052472952
   1.3509573218    4.9155821297    2.1629755087
   1.8852028732    4.8538164026    4.9268218363
   4.2623512300    0.1263771297    2.6770660986
   4.9077531714    9.3999350088    5.1362325915
  12.9518663618    4.0289649496    2.0107881171
  12.9965329377    4.9155821297    4.2193378851
  15.3496643156    2.7063538648    1.9884692617
  15.9295431302    2.6601738242    4.4948079100
   5.9787691092    6.0872485156    1.1558718812
   7.1737451382    7.4462555221    3.1911566886
   7.8359575157    7.8869820396    5.4994301245
  10.5110758867    3.3583248585    1.4813869129
  10.0851390464    2.6570505221    3.7052472952
   1.3509573218    7.4462555221    2.1629755087
   1.8866423317    7.5083982439    4.9242083754
   4.2623512300    2.6570505221    2.6770660986
   4.9122200354    2.9753183783    5.1253804950
  12.9965329377    7.4462555221    4.2193378851
  16.7928364343    1.3857574638    5.8724475153
  16.7405190961    1.3917138259    3.0560115336
   7.9212545179    6.1976813878    1.6132491898
   8.5900067496    6.1809188259    4.5982833201
  10.9177312798    1.3917138259    2.0278303370
  11.4445583512    1.3687042495    4.7144648815
   1.8510578959    6.1782736144    0.6205159097
   2.7672189501    6.1809188259    3.5701021235
   1.2970933574    6.1823286155    6.3653667850
   4.9099055706    1.4003970752    1.0700543001
   5.6786128414    1.3917138259    4.0841927135
  13.8722785874    5.9175312925    2.6024373202
  14.3479705603    6.2142356499    5.2157611569
  13.7878712312    2.7866513343    0.6410140742
  13.9984422322    3.0029460640    3.5748780264
   5.2642605076    7.7921510640    2.0326062399
   5.8955420201    7.6240451432    4.9101836825
   8.1756544158    3.0029460640    2.5466968465
   8.8938379094    2.7360503386    5.4075477283
   0.0251420861    7.7921510640    4.0889686163
  16.3336326721    7.8589934761    1.3987015304
   2.3413761817    3.0680513073    1.7856834869
   2.9365359774    3.0029460640    4.6030592063
  10.9859561966    7.7466727811    3.2570530156
  11.8151365124    7.5065590714    5.8324726500
   4.9666133475    4.6179485173    2.1544467355
   5.9189133303    4.7433894221    4.9159153059
  13.9172640088    0.0828943658    0.7196752478
  13.9984422322    9.3588915877    3.5748780264
   0.0251420861    4.5696865877    4.0889686163
  16.3342230216    4.4758331948    1.4088535004
   8.1756544158    9.3588915877    2.5466968465
   8.8842965586    0.0103663343    5.3799732611
  11.0870483240    4.5696865877    3.0607874364
  11.7386613160    4.7753665972    5.7991084109
   2.3689862202    9.2724046613    1.7848984893
   2.9365359774    9.3588915877    4.6030592063
