Type_036 Type_136 
1.0
1.0079732984900000e+01 0.0000000000000000e+00 0.0000000000000000e+00 
3.5732980426999998e+00 9.4251025535000004e+00 0.0000000000000000e+00 
0.0000000000000000e+00 0.0000000000000000e+00 2.0510139881800001e+01 
Type_0 Type_1 
36 36 
Cartesian
   6.4580091941    7.0816657522    1.9507675415
   7.4357214877    5.6653696066    4.5762699324
   8.4134337949    4.2490734704    7.2017723234
   8.9060722474    3.2036579974    9.5113326332
   6.2619824239    1.5622579051    1.4979059379
   7.7616255985    0.3261653346    2.8259350051
   3.2106152471    6.9186756064    8.0769397870
  12.3126359384    8.3349717520    5.4514373961
   2.5588070506    2.9957674706    3.7011024688
   3.5365193478    1.5794713344    6.3266048597
   4.5297931065    0.2826974797    8.5695389575
  11.6175621138    4.3934565524    1.7485857662
  10.4766020874    1.2116742475    8.1074242947
   7.7876098233    5.3165184737    1.0172523887
   8.6381257309    3.9235888450    3.1889229480
   9.6158380346    2.5072926994    5.8144253595
   3.4353071932    6.5931909810    4.0640904116
   4.4130194868    5.1768948354    6.6895928231
   5.2397905056    3.8326862950    8.9021493276
  12.5373278708    8.0094871171    1.4385880207
   3.7612112903    1.2539866996    2.3137554843
   8.3122216302    9.2627931169    4.9392578753
   9.1897759284    7.9514390327    7.2040389638
  10.9392295502    6.4337887790    7.8675113207
   1.6997316329    3.4941530248    8.7690135558
   9.0961040077    7.4501433088    1.6920685881
   9.8405299722    6.0395635484    3.8825964505
  10.8182422694    4.6232674122    6.5080988414
  10.1664340729    0.7003592764    2.1322615026
   4.6377114244    8.7091656844    4.7577639141
   5.6154237316    7.2928695482    7.3832663051
   6.3001733637    5.8185476467    9.7750434631
   4.3544148045    4.9225129292    0.9170813075
   4.9636155251    3.3699614124    3.0074289663
   5.9413278288    1.9536652668    5.6329313778
   6.9402197216    0.6414896154    7.9855354669
   1.5798114469    2.4701758255    7.0013397092
   9.7041198410    5.3027681073    1.7503349273
  10.6818321382    3.8864719711    4.3758373183
   4.5013012932    7.9723702433    2.6255023910
   5.4790136004    6.5560741071    5.2510047819
   6.4567258976    5.1397779710    7.8765071729
   6.9936766242    3.9038191756   10.0862387058
  13.3730701917    9.4228916885    0.3236372597
   4.6203373591    2.7634650930    1.0632104569
   5.8049177011    1.2168698352    3.5006698546
  10.3559280375    9.2256762431    6.1261722456
  11.5584153668    8.2596472136    8.4712053517
   7.4907721543    8.8035667130    1.3411104707
   8.1730234298    7.5206863411    3.5169304781
   9.1507357270    6.1043902049    6.1424328691
  10.1284480307    4.6880940593    8.7679352600
   8.3833366989    2.1249427246    2.0252126502
   9.4766398241    0.7651859235    4.3920979418
   3.9479171892    8.7739923409    7.0176003327
   4.8818388564    7.1860845393    9.2913083420
   3.2961089827    4.8510842051    2.6417630145
   4.2738212864    3.4347880595    5.2672654054
   5.2515335835    2.0184919233    7.8927677964
   2.5295322522    6.0193637337    0.6622005807
   5.9869276098    6.0007156465    0.2773759702
   6.6419270178    4.8262836029    2.6336326925
   7.6196393215    3.4099874573    5.2591351039
   8.5973516187    1.9936913211    7.8846374949
  10.6587096607    2.1811092356    9.9082488721
   2.4168207737    6.0795895932    6.1343025676
   3.3935899534    4.7972419255    8.5124232464
  10.5391132082    8.9198902331    1.1238039668
  11.5188414649    7.4958857388    3.5088001561
   1.7469951490    2.1839528361    1.9937926148
   2.7427248744    0.7403853213    4.3839676198
   7.2937352244    8.7491917387    7.0094700312
