Type_036 Type_136 
1.0
1.0079732984900000e+01 0.0000000000000000e+00 0.0000000000000000e+00 
3.5732980426999998e+00 9.4251025535000004e+00 0.0000000000000000e+00 
0.0000000000000000e+00 0.0000000000000000e+00 2.0683503555200002e+01 
Type_0 Type_1 
36 36 
Cartesian
   6.4630235779    9.3634072847    1.2026362236
   6.8428472823    7.4925021364    2.6255023872
   7.8205595795    6.0762060003    5.2510047951
   8.7982718832    4.6599098547    7.8765071823
   9.5298866387    3.1781414935    9.9764285496
   2.6177410398    3.8787025669    3.5006698634
   3.5954533370    2.4624064308    6.1261722506
   4.5731656443    1.0461102946    8.7516746378
   3.6724464647    7.6664697806    9.2977317223
   7.9734879612    2.0183810443    2.9693679064
   8.4723677858    0.2649030068    4.3758373189
  13.0233781257    8.2737094242    7.0013397268
   5.1931001398    4.4917847174    2.8077194913
   6.6181553448    3.9602312874    4.5573312982
   7.5958676419    2.5439351513    7.1828337061
   8.2323493485    1.1809732113    9.3977890642
   1.4153367986    1.7627278635    2.8069963665
   2.3930491058    0.3464317273    5.4324987744
   6.9440594422    8.3552381353    8.0580011616
   6.0208598873    6.9812696313    9.6734538897
   9.9253028423    2.4123222164    1.2434912490
   2.7955581986    4.8213836461    8.7455334690
   8.9682806496    8.3882852184    1.9849755026
  10.8432615872    7.5740308570    3.6821638427
  11.8209738809    6.1577347114    6.3076662299
   0.8463646102    1.5612241207    8.7930889181
   8.0222060706    5.6364298918    1.6808338885
   9.0229638192    4.3344252293    3.8636578220
  10.0006761229    2.9181290837    6.4891602092
   3.8201452831    2.1369218053    2.1133228903
   4.7978575767    0.7206256598    4.7388252775
   9.3488679166    8.7294320771    7.3643276854
   3.1683370733    7.9482247894    2.9884903458
   4.1460493805    6.5319286532    5.6139927537
   5.1237616741    5.1156325076    8.2394951409
  11.3660631302    9.2257072102    1.7787953840
   9.9629985235    0.2002211583   10.0726885691
   7.3554572811    3.8265858592    2.4250697854
   8.3331695783    2.4102897230    5.0505721933
   9.3108818755    0.9939935868    7.6760745804
   1.9076409958    1.7782266075    0.8371068359
   3.1303510322    0.2127862991    3.3002372616
   7.6813613786    8.2215927070    5.9257396488
   7.7565568702    6.4548839779    8.6310403342
   2.4785428324    6.0240892831    4.1754047171
   3.4562551396    4.6077931469    6.8009071043
   4.2596169121    3.2250005695    8.8495759860
  11.6846389576    7.2327245878    1.8206469276
   7.5783510821    7.4556391785    0.7190786310
   8.8865536866    6.5209886068    3.3083675538
   9.8642659903    5.1046924612    5.9338699617
  10.8419782875    3.6883963250    8.5593723489
   3.5460432702    4.1242478995    1.6862650408
   4.6614474441    2.9071890373    4.1835350300
   5.6391597413    1.4908929011    6.8090374172
   6.4133017661    0.1945128560    9.0925697497
   4.0096392479    8.7184920307    5.0587024855
   4.9873515415    7.3021958851    7.6842048934
   4.2940932429    5.8105656741    9.9964019380
   9.5383618828    0.7096856133    2.4332000983
   4.9534941524    7.9865312426    1.8582620951
   5.8243608699    6.0445040929    4.1916653223
   6.8020731671    4.6282079567    6.8171677301
   7.7232226786    3.2459920268    9.1200828482
   1.5992546310    2.4307045328    5.0668327985
   2.5769669246    1.0144083872    7.6923351856
   7.1464796701    8.9100381980    9.9559380865
  10.6720152350    3.7123261817    2.6733635607
   4.8021335600    0.7155884741    0.9704415000
   6.4761690697    0.2332011089    3.3164978668
  11.0271794060    8.2420075168    5.9420002540
  12.1712902949    6.7735961622    8.2556542741
