Type_038 Type_138                       
   1.00000000000000     
    16.8846940542000006    0.0000000000000000    0.0000000000000000
     0.0000000000000000    9.5784099999999999    0.0000000000000000
     0.0000000000000000    0.0000000000000000   16.2994563815000006
   Ty   Ty
    38    38
Direct
  0.7800463069997861  0.1452969540038467  0.1276188879992901
  0.8004783216511981  0.1445416825026271  0.2902931202460479
  0.2163251780680895  0.6363223742771495  0.1026126155715446
  0.2973302850015926  0.6452969540038467  0.2222399440027587
  0.3935920327704707  0.1624251012224391  0.1353911507444323
  0.4697582780024945  0.1452969540038467  0.2537802959977782
  0.9524743000006950  0.6452969540038467  0.1591592400004487
  0.9561411564093021  0.6453654846368053  0.3137587748573338
  0.1752854425729922  0.1455579793097215  0.0498678060406093
  0.1249022930015968  0.1452969540038467  0.1906995920016072
  0.1089920625385687  0.1452124481411872  0.3349450784442425
  0.6025503123978311  0.6710752611445940  0.1055457064600418
  0.6421862709974775  0.6452969540038467  0.2853206489989688
  0.9227636837473199  0.9821931469001655  0.1357214865773599
  0.9425169396090638  0.0157201364005104  0.2818724672201114
  0.3582472541215722  0.6469107488612380  0.0663916230438346
  0.4248667550014389  0.5131939539965416  0.1972404939988621
  0.4673665070903112  0.4647938526749229  0.3365268604065719
  0.6056571583455010  0.9387785766844416  0.0936614553742245
  0.5972947470014347  0.0131939539965416  0.2287808460000207
  0.0800107689996281  0.5131939539965416  0.1341597890026520
  0.1127028602586151  0.5015721602645939  0.2967214369240807
  0.2524387620005299  0.0131939539965416  0.1657001409976715
  0.2908240580100170  0.9801942414242006  0.3159397607729346
  0.7438483632977579  0.5475473950582597  0.1051610454472254
  0.7697227400023365  0.5131939539965416  0.2603211980011793
  0.9041985108579667  0.2757680991103939  0.1198452028508825
  0.9422570207449255  0.2797722366864619  0.2755296162574652
  0.4745270294374677  0.8470057195818512  0.0553626055973382
  0.4248667550014389  0.7773999540007139  0.1972404939988621
  0.4640542121490796  0.8190161401631357  0.3404570308613728
  0.6677201066131033  0.3433203031087615  0.0861896482691620
  0.5972947470014347  0.2773999540007139  0.2287808460000207
  0.0800107689996281  0.7773999540007139  0.1341597890026520
  0.1126411271767722  0.7890257799676590  0.2968483718568464
  0.2524387620005299  0.2773999540007139  0.1657001409976715
  0.2920130431189847  0.3145815989814622  0.3131901628875227
  0.7697227400023365  0.7773999540007139  0.2603211980011793
  0.9925343752042295  0.1528488556242635  0.3639106596544153
  0.9914612059989238  0.1452969540038467  0.1889491030017183
  0.4741772270021372  0.6452969540038467  0.0943280459982105
  0.5087451840007304  0.6452969540038467  0.2835701589990478
  0.6466052199971131  0.1452969540038467  0.1258683989994012
  0.6779748860153347  0.1455921573309169  0.2898014492839991
  0.1125365675090393  0.6443528211467253  0.0401516621341287
  0.1638891979989197  0.6452969540038467  0.2204894550028698
  0.2933278356126365  0.1448313435215240  0.0688972180369518
  0.3363171909998286  0.1452969540038467  0.2520298069978892
  0.8283239255804631  0.6505800123089358  0.1728890982584232
  0.8374192048675511  0.6454881120248572  0.3361544878158540
  0.7895271356476812  0.3462582277016750  0.0655398697844021
  0.8290610549983839  0.3135119539986277  0.2207824650019887
  0.3117770760015972  0.8135119539986277  0.1261614079984881
  0.3493766712481587  0.7951568515024974  0.3027443979113755
  0.4842050690024990  0.3135119539986277  0.1577017609996787
  0.5273274940084107  0.2846989843095074  0.3321356036661740
  0.0014890469983797  0.8135119539986277  0.2523228169970153
  0.9706043957558990  0.8088533713946262  0.0789855493255089
  0.1402448293406309  0.3217435650906566  0.1108508533113266
  0.1739170399992886  0.3135119539986277  0.2838631689981668
  0.5823335378916283  0.8009355774288238  0.0042842686814524
  0.6546912788360686  0.8142048968670181  0.1912927254027252
  0.6936257971394397  0.7934834236893167  0.3555822612389861
  0.3117770760015972  0.4770819539986277  0.1261614079984881
  0.3518664882661682  0.4986910661790418  0.3032014298286185
  0.8716700046062726  0.1051109948624074  0.0491269636335119
  0.8290610549983839  0.9770819539986277  0.2207824650019887
  0.0014890469983797  0.4770819539986277  0.2523228169970153
  0.9666050305625902  0.4610944473456442  0.0906523585091534
  0.4842050690024990  0.9770819539986277  0.1577017609996787
  0.5243753353586911  0.9989939918942738  0.3308117613124821
  0.6517369160481010  0.5287808627527966  0.0240082368724970
  0.6566330619974821  0.4770819539986277  0.1892421130008373
  0.6929077381410877  0.4958610856394756  0.3553719786307923
  0.1401556414942178  0.9693799390295439  0.1109091995026148
  0.1739170399992886  0.9770819539986277  0.2838631689981668
 
  0.00000000E+00  0.00000000E+00  0.00000000E+00
  0.00000000E+00  0.00000000E+00  0.00000000E+00
  0.00000000E+00  0.00000000E+00  0.00000000E+00
  0.00000000E+00  0.00000000E+00  0.00000000E+00
  0.00000000E+00  0.00000000E+00  0.00000000E+00
  0.00000000E+00  0.00000000E+00  0.00000000E+00
  0.00000000E+00  0.00000000E+00  0.00000000E+00
  0.00000000E+00  0.00000000E+00  0.00000000E+00
  0.00000000E+00  0.00000000E+00  0.00000000E+00
  0.00000000E+00  0.00000000E+00  0.00000000E+00
  0.00000000E+00  0.00000000E+00  0.00000000E+00
  0.00000000E+00  0.00000000E+00  0.00000000E+00
  0.00000000E+00  0.00000000E+00  0.00000000E+00
  0.00000000E+00  0.00000000E+00  0.00000000E+00
  0.00000000E+00  0.00000000E+00  0.00000000E+00
  0.00000000E+00  0.00000000E+00  0.00000000E+00
  0.00000000E+00  0.00000000E+00  0.00000000E+00
  0.00000000E+00  0.00000000E+00  0.00000000E+00
  0.00000000E+00  0.00000000E+00  0.00000000E+00
  0.00000000E+00  0.00000000E+00  0.00000000E+00
  0.00000000E+00  0.00000000E+00  0.00000000E+00
  0.00000000E+00  0.00000000E+00  0.00000000E+00
  0.00000000E+00  0.00000000E+00  0.00000000E+00
  0.00000000E+00  0.00000000E+00  0.00000000E+00
  0.00000000E+00  0.00000000E+00  0.00000000E+00
  0.00000000E+00  0.00000000E+00  0.00000000E+00
  0.00000000E+00  0.00000000E+00  0.00000000E+00
  0.00000000E+00  0.00000000E+00  0.00000000E+00
  0.00000000E+00  0.00000000E+00  0.00000000E+00
  0.00000000E+00  0.00000000E+00  0.00000000E+00
  0.00000000E+00  0.00000000E+00  0.00000000E+00
  0.00000000E+00  0.00000000E+00  0.00000000E+00
  0.00000000E+00  0.00000000E+00  0.00000000E+00
  0.00000000E+00  0.00000000E+00  0.00000000E+00
  0.00000000E+00  0.00000000E+00  0.00000000E+00
  0.00000000E+00  0.00000000E+00  0.00000000E+00
  0.00000000E+00  0.00000000E+00  0.00000000E+00
  0.00000000E+00  0.00000000E+00  0.00000000E+00
  0.00000000E+00  0.00000000E+00  0.00000000E+00
  0.00000000E+00  0.00000000E+00  0.00000000E+00
  0.00000000E+00  0.00000000E+00  0.00000000E+00
  0.00000000E+00  0.00000000E+00  0.00000000E+00
  0.00000000E+00  0.00000000E+00  0.00000000E+00
  0.00000000E+00  0.00000000E+00  0.00000000E+00
  0.00000000E+00  0.00000000E+00  0.00000000E+00
  0.00000000E+00  0.00000000E+00  0.00000000E+00
  0.00000000E+00  0.00000000E+00  0.00000000E+00
  0.00000000E+00  0.00000000E+00  0.00000000E+00
  0.00000000E+00  0.00000000E+00  0.00000000E+00
  0.00000000E+00  0.00000000E+00  0.00000000E+00
  0.00000000E+00  0.00000000E+00  0.00000000E+00
  0.00000000E+00  0.00000000E+00  0.00000000E+00
  0.00000000E+00  0.00000000E+00  0.00000000E+00
  0.00000000E+00  0.00000000E+00  0.00000000E+00
  0.00000000E+00  0.00000000E+00  0.00000000E+00
  0.00000000E+00  0.00000000E+00  0.00000000E+00
  0.00000000E+00  0.00000000E+00  0.00000000E+00
  0.00000000E+00  0.00000000E+00  0.00000000E+00
  0.00000000E+00  0.00000000E+00  0.00000000E+00
  0.00000000E+00  0.00000000E+00  0.00000000E+00
  0.00000000E+00  0.00000000E+00  0.00000000E+00
  0.00000000E+00  0.00000000E+00  0.00000000E+00
  0.00000000E+00  0.00000000E+00  0.00000000E+00
  0.00000000E+00  0.00000000E+00  0.00000000E+00
  0.00000000E+00  0.00000000E+00  0.00000000E+00
  0.00000000E+00  0.00000000E+00  0.00000000E+00
  0.00000000E+00  0.00000000E+00  0.00000000E+00
  0.00000000E+00  0.00000000E+00  0.00000000E+00
  0.00000000E+00  0.00000000E+00  0.00000000E+00
  0.00000000E+00  0.00000000E+00  0.00000000E+00
  0.00000000E+00  0.00000000E+00  0.00000000E+00
  0.00000000E+00  0.00000000E+00  0.00000000E+00
  0.00000000E+00  0.00000000E+00  0.00000000E+00
  0.00000000E+00  0.00000000E+00  0.00000000E+00
  0.00000000E+00  0.00000000E+00  0.00000000E+00
  0.00000000E+00  0.00000000E+00  0.00000000E+00
