Type_052 Type_152 
1.0
1.1256463038200000e+01 0.0000000000000000e+00 0.0000000000000000e+00 
5.0445621212000002e+00 1.0062820337100000e+01 0.0000000000000000e+00 
0.0000000000000000e+00 0.0000000000000000e+00 2.2883649387500000e+01 
Type_0 Type_1 
52 52 
Cartesian
   5.3522814389    4.8178807436    6.6478400577
   5.9359508116    3.8723794831    9.5838980192
   2.2463310649    0.7319719765    3.7117820963
   0.6387075327    0.6855051662   11.2192779119
   5.0464084400    5.2619847109    1.0127202624
   4.7686120527    3.3545316644    2.9360579615
   5.3522814305    2.4090304139    5.8721159229
   5.9359508195    1.4635291635    8.8081738844
   1.8774643416    3.7383591286    5.8721159229
   2.4611337307    2.7928578782    8.8081738844
   3.1349029537    2.0342876069   11.2450988648
   6.9220263192    4.6838603892    2.9360579615
   4.9776001801    0.7182536121    0.9224289161
  10.9805129580    4.8178807436    6.6478400577
  11.5641823307    3.8723794831    9.5838980192
   7.0068062188    2.0514730413    2.0569589747
   7.8745625840    0.7319719765    3.7117820963
   6.1801784937    0.4315497248   11.0947276564
  10.7944268524    5.3149829007    1.1714535187
  10.3968435718    3.3545316644    2.9360579615
  10.9805129496    2.4090304139    5.8721159229
  11.5641823386    1.4635291635    8.8081738844
   7.5056958608    3.7383591286    5.8721159229
   8.0893652498    2.7928578782    8.8081738844
   8.6274793346    2.0621393729   11.2856364580
  12.5502578383    4.6838603892    2.9360579615
   8.1897052232    0.2281984227    1.0144051481
   7.8745624994    9.8492909121    6.6478400577
   8.4582318722    8.9037896516    9.5838980192
   3.8578341046    7.0723636824    2.0741137806
   4.7686121255    5.7633821450    3.7117820963
   3.1665594340    5.6456765619   11.2339874068
   7.2908931133    8.3859418329    2.9360579615
   7.8745624911    7.4404405824    5.8721159229
   8.4582318801    6.4949393320    8.8081738844
   4.3997454022    8.7697692972    5.8721159229
   4.9834147912    7.8242680467    8.8081738844
   5.5739850648    7.1927878558   11.1830179529
   9.4443073798    9.7152705577    2.9360579615
   7.4502200382    5.5379645212    0.8404324745
  13.5027940186    9.8492909121    6.6478400577
  14.0864633913    8.9037896516    9.5838980192
   9.0969889285    7.0514905438    2.0309796923
  10.3968436446    5.7633821450    3.7117820963
  10.9383101177    8.2842912323    1.1159595257
  12.9191246324    8.3859418329    2.9360579615
  13.5027940102    7.4404405824    5.8721159229
  14.0864633992    6.4949393320    8.8081738844
  10.0279769213    8.7697692972    5.8721159229
  10.6116463104    7.8242680467    8.8081738844
  11.3354322985    6.7567549776   10.8756371630
  15.0725388989    9.7152705577    2.9360579615
   1.6618955858    1.6787142544    7.0115334673
   2.2455649698    0.7332129939    9.9475914287
   6.1227881856    3.5697167654    1.1394175444
   6.7064575583    2.6242155049    4.0754755058
   4.3816985721    6.4475020278   12.6100167160
   2.3222012853    3.8236010618   10.5891262651
   7.2901269369    4.7460538113    7.9993114563
   3.7135800369    1.5746467553    2.3684646826
   4.1841765742    0.6601450441    5.0632534949
   3.3807113207    4.9443390495    2.1271955334
   3.9643806934    3.9988377890    5.0632534949
   4.5480500712    3.0533365386    7.9993114563
   5.1495330552    2.1863518604   10.6274871501
   7.2901271049    1.6787142544    7.0115334673
   7.8737964889    0.7332129939    9.9475914287
  11.7616872874    3.5538997773    1.4287280835
  12.3346890774    2.6242155049    4.0754755058
  11.3909575332    4.8373314983   11.4687554153
   7.7197974076    3.7530479515   10.5953299124
  12.9183584560    4.7460538113    7.9993114563
   9.2287387206    1.6056463046    2.1271955334
   9.8124080933    0.6601450441    5.0632534949
   9.0089428398    4.9443390495    2.1271955334
   9.5926122126    3.9988377890    5.0632534949
  10.1762815903    3.0533365386    7.9993114563
  10.6326056073    2.1956881708   10.5699722724
   4.1841766464    6.7101244229    7.0115334673
   4.7678460304    5.7646231624    9.9475914287
   8.9213316652    8.9415662737    1.0615469826
   9.2287386189    7.6556256734    4.0754755058
   1.8615784791    1.3789875247   12.6426897132
   4.6965648901    8.9736799450   10.5895962791
   9.8124079975    9.7774639798    7.9993114563
   6.1227882621    6.6370564732    2.1271955334
   6.7064576348    5.6915552127    5.0632534949
   5.8760312273    9.8482330716    2.5399288021
   6.4866617540    9.0302479576    5.0632534949
   7.0703311318    8.0847467071    7.9993114563
   7.5548253462    7.2823262948   10.5202703554
   9.8124081655    6.7101244229    7.0115334673
  10.3411708255    5.7473549236    9.3646358031
  14.2733007653    8.6011269339    1.1394175444
  14.8569701380    7.6556256734    4.0754755058
   7.3159463967    1.2221579527   12.5499486092
  10.2832659935    8.6189404961   10.7036604577
  15.4406395166    9.7774639798    7.9993114563
  11.7447029844    6.7215530644    2.3508871077
  12.3346891539    5.6915552127    5.0632534949
  11.5312239004    9.9757492181    2.1271955334
  12.1148932731    9.0302479576    5.0632534949
  12.6985626509    8.0847467071    7.9993114563
  13.3265259877    7.2828260767   10.6377797179
