Type_026 Type_126                       
   1.00000000000000     
    11.2564630381999997    0.0000000000000000    0.0000000000000000
     0.0000000000000000    9.5784099999999999    0.0000000000000000
     0.0000000000000000    0.0000000000000000   17.1924924047000012
   Ty   Ty
    26    26
Direct
  0.4393349899979597  0.4638879969953251  0.1628337709973167
  0.4977221089152977  0.4432641355924432  0.3309964361388538
  0.1586596315236122  0.9760815851900233  0.0978464786664759
  0.2096755634776599  0.9774157007060680  0.2402158876610017
  0.4393349899979597  0.1996819970015906  0.1628337709973167
  0.4663913332974872  0.1792708921418082  0.3195413625832515
  0.1592657489404985  0.6971955922538271  0.0933885158303767
  0.2017415745153244  0.6866038901863689  0.2339289212773181
  0.1306397029963620  0.3317849969984579  0.1391328760015114
  0.1843878368059677  0.3331403837902087  0.2981345512532414
  0.4540457748722204  0.8310697350604102  0.0965946509969697
  0.3773757035033327  0.8280940755407187  0.2252655612365544
  0.5348206655474144  0.9659312654709922  0.2698158031369502
  0.9393349899979597  0.4638879969953251  0.1628337709973167
  0.9807589083031658  0.4740160838176664  0.3216693628893594
  0.6545172604393983  0.9854728070525240  0.1051540724139457
  0.7382488860043210  0.9641577975572133  0.2471634426453662
  0.9393349899979597  0.1996819970015906  0.1628337709973167
  0.9911963309999123  0.2119670852573634  0.3243405572059785
  0.6578952947625183  0.6820171550706249  0.1031535601385656
  0.7152609639970393  0.6996819970015906  0.2525398899994897
  0.6306397029963620  0.3317849969984579  0.1391328760015114
  0.6824916370025633  0.3317849969984579  0.3185451150004752
  0.9543525513514979  0.8512099006515683  0.0950258901643224
  0.9134311990193495  0.8040989583135385  0.2283024474233315
  0.8317357613335261  0.8459168036239859  0.3590237624425257
  0.0657598625863187  0.1607543585208830  0.0784894495536363
  0.1114890379989788  0.1635699970036768  0.2389385289986805
  0.0774884427408438  0.3487731476309719  0.3942558792259234
  0.3355630629960302  0.6635699970036768  0.1492324090018826
  0.0693876110061709  0.5075214689703174  0.0808407491993464
  0.1114890379989788  0.4999999970036768  0.2389385289986805
  0.3355630629960302  0.9999999970036768  0.1492324090018826
  0.3624747631430481  0.9875378551868224  0.3125679513012827
  0.3139585216161436  0.3327861265283047  0.1127655434281323
  0.3678888029967027  0.3317849969984579  0.2691183590015811
  0.0898687992993032  0.8401791365790388  0.0170426122288063
  0.0919628440023317  0.8317849969984579  0.1794122389989710
  0.5638727334918698  0.1663064053741721  0.0762587003697988
  0.6114890379989788  0.1635699970036768  0.2389385289986805
  0.5581599603781626  0.2825156408631528  0.4028735327698314
  0.8355630629960302  0.6635699970036768  0.1492324090018826
  0.8758578918122168  0.6568523176393555  0.3165149975935080
  0.5650768315601482  0.5008222241791671  0.0783684110648011
  0.6114890379989788  0.4999999970036768  0.2389385289986805
  0.6533390814452531  0.5093147045490838  0.3827498469390704
  0.8355630629960302  0.9999999970036768  0.1492324090018826
  0.8142190798030313  0.3319563394028862  0.1129843135582220
  0.8678888029967027  0.3317849969984579  0.2691183590015811
  0.6002018307857711  0.8335970101405152  0.0258812099796728
  0.5919628440023317  0.8317849969984579  0.1794122389989710
  0.6562908498637370  0.8490624499786463  0.3380594496008698
 
  0.00000000E+00  0.00000000E+00  0.00000000E+00
  0.00000000E+00  0.00000000E+00  0.00000000E+00
  0.00000000E+00  0.00000000E+00  0.00000000E+00
  0.00000000E+00  0.00000000E+00  0.00000000E+00
  0.00000000E+00  0.00000000E+00  0.00000000E+00
  0.00000000E+00  0.00000000E+00  0.00000000E+00
  0.00000000E+00  0.00000000E+00  0.00000000E+00
  0.00000000E+00  0.00000000E+00  0.00000000E+00
  0.00000000E+00  0.00000000E+00  0.00000000E+00
  0.00000000E+00  0.00000000E+00  0.00000000E+00
  0.00000000E+00  0.00000000E+00  0.00000000E+00
  0.00000000E+00  0.00000000E+00  0.00000000E+00
  0.00000000E+00  0.00000000E+00  0.00000000E+00
  0.00000000E+00  0.00000000E+00  0.00000000E+00
  0.00000000E+00  0.00000000E+00  0.00000000E+00
  0.00000000E+00  0.00000000E+00  0.00000000E+00
  0.00000000E+00  0.00000000E+00  0.00000000E+00
  0.00000000E+00  0.00000000E+00  0.00000000E+00
  0.00000000E+00  0.00000000E+00  0.00000000E+00
  0.00000000E+00  0.00000000E+00  0.00000000E+00
  0.00000000E+00  0.00000000E+00  0.00000000E+00
  0.00000000E+00  0.00000000E+00  0.00000000E+00
  0.00000000E+00  0.00000000E+00  0.00000000E+00
  0.00000000E+00  0.00000000E+00  0.00000000E+00
  0.00000000E+00  0.00000000E+00  0.00000000E+00
  0.00000000E+00  0.00000000E+00  0.00000000E+00
  0.00000000E+00  0.00000000E+00  0.00000000E+00
  0.00000000E+00  0.00000000E+00  0.00000000E+00
  0.00000000E+00  0.00000000E+00  0.00000000E+00
  0.00000000E+00  0.00000000E+00  0.00000000E+00
  0.00000000E+00  0.00000000E+00  0.00000000E+00
  0.00000000E+00  0.00000000E+00  0.00000000E+00
  0.00000000E+00  0.00000000E+00  0.00000000E+00
  0.00000000E+00  0.00000000E+00  0.00000000E+00
  0.00000000E+00  0.00000000E+00  0.00000000E+00
  0.00000000E+00  0.00000000E+00  0.00000000E+00
  0.00000000E+00  0.00000000E+00  0.00000000E+00
  0.00000000E+00  0.00000000E+00  0.00000000E+00
  0.00000000E+00  0.00000000E+00  0.00000000E+00
  0.00000000E+00  0.00000000E+00  0.00000000E+00
  0.00000000E+00  0.00000000E+00  0.00000000E+00
  0.00000000E+00  0.00000000E+00  0.00000000E+00
  0.00000000E+00  0.00000000E+00  0.00000000E+00
  0.00000000E+00  0.00000000E+00  0.00000000E+00
  0.00000000E+00  0.00000000E+00  0.00000000E+00
  0.00000000E+00  0.00000000E+00  0.00000000E+00
  0.00000000E+00  0.00000000E+00  0.00000000E+00
  0.00000000E+00  0.00000000E+00  0.00000000E+00
  0.00000000E+00  0.00000000E+00  0.00000000E+00
  0.00000000E+00  0.00000000E+00  0.00000000E+00
  0.00000000E+00  0.00000000E+00  0.00000000E+00
  0.00000000E+00  0.00000000E+00  0.00000000E+00
