Type_048 Type_148                       
   1.00000000000000     
    11.2564630381999997    0.0000000000000000    0.0000000000000000
     5.0445621212000002   10.0628203370999998    0.0000000000000000
     0.0000000000000000    0.0000000000000000   21.7442318436000015
   Ty   Ty
    48    48
Direct
  0.2609206960044546  0.4787803599988010  0.2533279879979418
  0.3548805620016608  0.3848204930006744  0.3883549679997316
  0.3701334227291539  0.3695679399232645  0.4967309592902041
  0.1669608289981213  0.0727402410039417  0.1183010080007563
  0.0487775165115210  0.0542290496222151  0.4722561526045581
  0.2975438888952056  0.2318302833052783  0.1183992636997999
  0.3681989310042511  0.2393991279977712  0.2176530500015303
  0.4621587979997130  0.1454392620033360  0.3526800299987229
  0.0003019419993961  0.3715021239937357  0.2176530500015303
  0.0942618090037328  0.2775422579993005  0.3526800299987229
  0.1854696774725966  0.1909213589570697  0.4722589476630503
  0.4161570994955710  0.4606404695023940  0.1018154400543523
  0.7609206960044546  0.4787803599988010  0.2533279879979418
  0.8548805620016608  0.3848204930006744  0.3883549679997316
  0.8701208851034750  0.3695798408214230  0.4967259176037118
  0.6667252632623715  0.0861150000368340  0.1434796353598600
  0.5487822351872040  0.0542297758698993  0.4722679271892716
  0.7742390649993283  0.3333589940021469  0.0826260699997476
  0.8681989310042511  0.2393991279977712  0.2176530500015303
  0.9621587979997130  0.1454392620033360  0.3526800299987229
  0.5003019420082779  0.3715021239937357  0.2176530500015303
  0.5942618090037328  0.2775422579993005  0.3526800299987229
  0.6854733748018518  0.1909210472055065  0.4722651312293920
  0.9073438195805394  0.4558909473009720  0.0984470341052770
  0.2609206959977968  0.9787803599938343  0.2533279879979418
  0.3548805620038848  0.8848204929957006  0.3883549679997316
  0.3701208851190358  0.8695798408065158  0.4967259176037118
  0.1667252632646026  0.5861150000318602  0.1434796353598600
  0.0487822351894280  0.5542297758649326  0.4722679271892716
  0.2742390650015523  0.8333589939971802  0.0826260699997476
  0.3681989310064822  0.7393991279928045  0.2176530500015303
  0.4621587980019370  0.6454392619983693  0.3526800299987229
  0.0003019419971650  0.8715021239987024  0.2176530500015303
  0.0942618089970821  0.7775422579943267  0.3526800299987229
  0.1854733748040758  0.6909210472005398  0.4722651312293920
  0.4073438195827421  0.9558909473158792  0.0984470341190757
  0.7609206960066786  0.9787803599938343  0.2533279879979418
  0.8548805620038848  0.8848204929957006  0.3883549679997316
  0.8701334227313779  0.8695679399182978  0.4967309592902041
  0.6669608290003453  0.5727402409989679  0.1183010080007563
  0.5487775165137450  0.5542290496172413  0.4722561526045581
  0.7975438888885193  0.7318302833201855  0.1183992637043971
  0.8681989310064822  0.7393991279928045  0.2176530500015303
  0.9621587980019370  0.6454392619983693  0.3526800299987229
  0.5003019419971650  0.8715021239987024  0.2176530500015303
  0.5942618090059639  0.7775422579943267  0.3526800299987229
  0.6854696774703655  0.6909213589620435  0.4722589476630503
  0.9161570994978021  0.9606404694974273  0.1018154400543523
  0.0728776349993865  0.1668234349977240  0.2700539599989753
  0.1668375020004547  0.0728635679995975  0.4050809400007651
  0.4789177539986298  0.2607833010020997  0.1350269800017898
  0.2076186401906170  0.5320863554782562  0.5277412452708745
  0.0302334250019030  0.3776826399938784  0.4505080670018344
  0.4362735430005458  0.4716425070019454  0.3154810870000517
  0.2659071312326517  0.1230564372430081  0.0524300315918254
  0.3423136770025295  0.0656023879971457  0.1804541069982619
  0.1740986819989843  0.3973873779955071  0.1804541069982619
  0.2680585479994591  0.3034275120010648  0.3154810870000517
  0.3620184150005272  0.2094676450029382  0.4505080670018344
  0.5728776349993865  0.1668234349977240  0.2700539599989753
  0.6668375020004547  0.0728635679995975  0.4050809400007651
  0.8828256275220383  0.3702427770238543  0.0205084897782299
  0.9789177539986298  0.2607833010020997  0.1350269800017898
  0.7076025241111381  0.5320944761737749  0.5277380997700121
  0.5302334250019030  0.3776826399938784  0.4505080670018344
  0.9362735430005458  0.4716425070019454  0.3154810870000517
  0.7621261971803719  0.1470231871024694  0.0744523430279997
  0.8423136770025295  0.0656023879971457  0.1804541069982619
  0.5810269564321970  0.4752966566606105  0.0663528974340224
  0.6740986820078660  0.3973873779955071  0.1804541069982619
  0.7680585479994591  0.3034275120010648  0.3154810870000517
  0.8620184150005272  0.2094676450029382  0.4505080670018344
  0.0728776350016105  0.6668234349927573  0.2700539599989753
  0.1668375020026858  0.5728635679946237  0.4050809400007651
  0.3828256275287245  0.8702427770089471  0.0205084897644383
  0.4789177540008538  0.7607833009971330  0.1350269800017898
  0.2076025241133621  0.0320944761688011  0.5277380997700121
  0.0302334249996719  0.8776826399988451  0.4505080670018344
  0.4362735430027698  0.9716425069969787  0.3154810870000517
  0.2621261971825959  0.6470231870975027  0.0744523430233954
  0.3423136770003055  0.5656023880021124  0.1804541069982619
  0.0810269564344281  0.9752966566556367  0.0663528974340224
  0.1740986819967603  0.8973873780004737  0.1804541069982619
  0.2680585480016831  0.8034275119960981  0.3154810870000517
  0.3620184150027583  0.7094676449979715  0.4505080670018344
  0.5728776350016105  0.6668234349927573  0.2700539599989753
  0.6668375020026858  0.5728635679946237  0.4050809400007651
  0.9789177540008538  0.7607833009971330  0.1350269800017898
  0.7076186401928481  0.0320863554732824  0.5277412452662702
  0.5302334249996719  0.8776826399988451  0.4505080670018344
  0.9362735430027698  0.9716425069969787  0.3154810870000517
  0.7659071312259940  0.6230564372380414  0.0524300315872281
  0.8423136770003055  0.5656023880021124  0.1804541069982619
  0.6740986819967603  0.8973873780004737  0.1804541069982619
  0.7680585480016831  0.8034275119960981  0.3154810870000517
  0.8620184150027583  0.7094676449979715  0.4505080670018344
 
  0.00000000E+00  0.00000000E+00  0.00000000E+00
  0.00000000E+00  0.00000000E+00  0.00000000E+00
  0.00000000E+00  0.00000000E+00  0.00000000E+00
  0.00000000E+00  0.00000000E+00  0.00000000E+00
  0.00000000E+00  0.00000000E+00  0.00000000E+00
  0.00000000E+00  0.00000000E+00  0.00000000E+00
  0.00000000E+00  0.00000000E+00  0.00000000E+00
  0.00000000E+00  0.00000000E+00  0.00000000E+00
  0.00000000E+00  0.00000000E+00  0.00000000E+00
  0.00000000E+00  0.00000000E+00  0.00000000E+00
  0.00000000E+00  0.00000000E+00  0.00000000E+00
  0.00000000E+00  0.00000000E+00  0.00000000E+00
  0.00000000E+00  0.00000000E+00  0.00000000E+00
  0.00000000E+00  0.00000000E+00  0.00000000E+00
  0.00000000E+00  0.00000000E+00  0.00000000E+00
  0.00000000E+00  0.00000000E+00  0.00000000E+00
  0.00000000E+00  0.00000000E+00  0.00000000E+00
  0.00000000E+00  0.00000000E+00  0.00000000E+00
  0.00000000E+00  0.00000000E+00  0.00000000E+00
  0.00000000E+00  0.00000000E+00  0.00000000E+00
  0.00000000E+00  0.00000000E+00  0.00000000E+00
  0.00000000E+00  0.00000000E+00  0.00000000E+00
  0.00000000E+00  0.00000000E+00  0.00000000E+00
  0.00000000E+00  0.00000000E+00  0.00000000E+00
  0.00000000E+00  0.00000000E+00  0.00000000E+00
  0.00000000E+00  0.00000000E+00  0.00000000E+00
  0.00000000E+00  0.00000000E+00  0.00000000E+00
  0.00000000E+00  0.00000000E+00  0.00000000E+00
  0.00000000E+00  0.00000000E+00  0.00000000E+00
  0.00000000E+00  0.00000000E+00  0.00000000E+00
  0.00000000E+00  0.00000000E+00  0.00000000E+00
  0.00000000E+00  0.00000000E+00  0.00000000E+00
  0.00000000E+00  0.00000000E+00  0.00000000E+00
  0.00000000E+00  0.00000000E+00  0.00000000E+00
  0.00000000E+00  0.00000000E+00  0.00000000E+00
  0.00000000E+00  0.00000000E+00  0.00000000E+00
  0.00000000E+00  0.00000000E+00  0.00000000E+00
  0.00000000E+00  0.00000000E+00  0.00000000E+00
  0.00000000E+00  0.00000000E+00  0.00000000E+00
  0.00000000E+00  0.00000000E+00  0.00000000E+00
  0.00000000E+00  0.00000000E+00  0.00000000E+00
  0.00000000E+00  0.00000000E+00  0.00000000E+00
  0.00000000E+00  0.00000000E+00  0.00000000E+00
  0.00000000E+00  0.00000000E+00  0.00000000E+00
  0.00000000E+00  0.00000000E+00  0.00000000E+00
  0.00000000E+00  0.00000000E+00  0.00000000E+00
  0.00000000E+00  0.00000000E+00  0.00000000E+00
  0.00000000E+00  0.00000000E+00  0.00000000E+00
  0.00000000E+00  0.00000000E+00  0.00000000E+00
  0.00000000E+00  0.00000000E+00  0.00000000E+00
  0.00000000E+00  0.00000000E+00  0.00000000E+00
  0.00000000E+00  0.00000000E+00  0.00000000E+00
  0.00000000E+00  0.00000000E+00  0.00000000E+00
  0.00000000E+00  0.00000000E+00  0.00000000E+00
  0.00000000E+00  0.00000000E+00  0.00000000E+00
  0.00000000E+00  0.00000000E+00  0.00000000E+00
  0.00000000E+00  0.00000000E+00  0.00000000E+00
  0.00000000E+00  0.00000000E+00  0.00000000E+00
  0.00000000E+00  0.00000000E+00  0.00000000E+00
  0.00000000E+00  0.00000000E+00  0.00000000E+00
  0.00000000E+00  0.00000000E+00  0.00000000E+00
  0.00000000E+00  0.00000000E+00  0.00000000E+00
  0.00000000E+00  0.00000000E+00  0.00000000E+00
  0.00000000E+00  0.00000000E+00  0.00000000E+00
  0.00000000E+00  0.00000000E+00  0.00000000E+00
  0.00000000E+00  0.00000000E+00  0.00000000E+00
  0.00000000E+00  0.00000000E+00  0.00000000E+00
  0.00000000E+00  0.00000000E+00  0.00000000E+00
  0.00000000E+00  0.00000000E+00  0.00000000E+00
  0.00000000E+00  0.00000000E+00  0.00000000E+00
  0.00000000E+00  0.00000000E+00  0.00000000E+00
  0.00000000E+00  0.00000000E+00  0.00000000E+00
  0.00000000E+00  0.00000000E+00  0.00000000E+00
  0.00000000E+00  0.00000000E+00  0.00000000E+00
  0.00000000E+00  0.00000000E+00  0.00000000E+00
  0.00000000E+00  0.00000000E+00  0.00000000E+00
  0.00000000E+00  0.00000000E+00  0.00000000E+00
  0.00000000E+00  0.00000000E+00  0.00000000E+00
  0.00000000E+00  0.00000000E+00  0.00000000E+00
  0.00000000E+00  0.00000000E+00  0.00000000E+00
  0.00000000E+00  0.00000000E+00  0.00000000E+00
  0.00000000E+00  0.00000000E+00  0.00000000E+00
  0.00000000E+00  0.00000000E+00  0.00000000E+00
  0.00000000E+00  0.00000000E+00  0.00000000E+00
  0.00000000E+00  0.00000000E+00  0.00000000E+00
  0.00000000E+00  0.00000000E+00  0.00000000E+00
  0.00000000E+00  0.00000000E+00  0.00000000E+00
  0.00000000E+00  0.00000000E+00  0.00000000E+00
  0.00000000E+00  0.00000000E+00  0.00000000E+00
  0.00000000E+00  0.00000000E+00  0.00000000E+00
  0.00000000E+00  0.00000000E+00  0.00000000E+00
  0.00000000E+00  0.00000000E+00  0.00000000E+00
  0.00000000E+00  0.00000000E+00  0.00000000E+00
  0.00000000E+00  0.00000000E+00  0.00000000E+00
  0.00000000E+00  0.00000000E+00  0.00000000E+00
  0.00000000E+00  0.00000000E+00  0.00000000E+00
