Type_036 Type_136                       
   1.00000000000000     
    16.8846940542000006    0.0000000000000000    0.0000000000000000
     0.0000000000000000    9.5784099999999999    0.0000000000000000
     0.0000000000000000    0.0000000000000000   16.1690871196999986
   Ty   Ty
    36    36
Direct
  0.7800463069997861  0.1452969540038467  0.1205849920014614
  0.7868847765349400  0.1453647152397934  0.2791383220578325
  0.2152354982289992  0.6195611811354880  0.0954407776194017
  0.2973302850015926  0.6452969540038467  0.2159689649977494
  0.3875897827223085  0.1274974923499812  0.1257914285848543
  0.4697582780024945  0.1452969540038467  0.2477636230012692
  0.9524743000006950  0.6452969540038467  0.1523796499987995
  0.9683234333187727  0.6453025065016007  0.3144757248543044
  0.1249022930015968  0.1452969540038467  0.1841743080023193
  0.1000705895337006  0.1445465697333930  0.3253620354046092
  0.5787527959009253  0.6468584907098389  0.1502583390647914
  0.6421862709974775  0.6452969540038467  0.2795582809986072
  0.9102526444106331  0.0048000592687103  0.1171556333005341
  0.9447646123520954  0.0120774321625419  0.2714454616149951
  0.3581821916219852  0.6450256033830257  0.0583344880708054
  0.4248667550014389  0.5131939539965416  0.1907679470006585
  0.5355011657407474  0.1542285666201408  0.1019336785248655
  0.5972947470014347  0.0131939539965416  0.2225626049979965
  0.0800107689996281  0.5131939539965416  0.1271786320017156
  0.1128299039760279  0.5012259127976364  0.2911566949728552
  0.2524387620005299  0.0131939539965416  0.1589732889971387
  0.2961049480168896  0.9554803688190390  0.2954864323341369
  0.7727918646861269  0.4309168677578015  0.1185487129613279
  0.7697227400023365  0.5131939539965416  0.2543572630015163
  0.9099489322152223  0.2858526638763621  0.1170455718365346
  0.9446639462106461  0.2784745587628876  0.2713926424240469
  0.4128688383528001  0.8884189564447524  0.0598794723741918
  0.4248667550014389  0.7773999540007139  0.1907679470006585
  0.4908884088153371  0.8162397218118684  0.3189364995823993
  0.5972947470014347  0.2773999540007139  0.2225626049979965
  0.0800107689996281  0.7773999540007139  0.1271786320017156
  0.1128955792732214  0.7897670538325272  0.2911422111186752
  0.2524387620005299  0.2773999540007139  0.1589732889971387
  0.2914602170701386  0.3177102281693962  0.3054188236504274
  0.7760206531512921  0.8570293922999781  0.1179205268599830
  0.7697227400023365  0.7773999540007139  0.2543572630015163
  0.9861571618561911  0.1453670541979335  0.3612795264417130
  0.9914612059989238  0.1452969540038467  0.1824097040028008
  0.4741772270021372  0.6452969540038467  0.0870257299984232
  0.5133207966030042  0.6311587369093630  0.2593705180851202
  0.6537827615273883  0.1463552303566047  0.1313761825064290
  0.6674548377201219  0.1482228144859121  0.2968343662180146
  0.1123294724329469  0.6455572200396489  0.0325744438941342
  0.1638891979989197  0.6452969540038467  0.2142043620001388
  0.2825716731191363  0.1453712299536178  0.0629383983811991
  0.3363171909998286  0.1452969540038467  0.2459990199974769
  0.8190332129980220  0.6452969540038467  0.1506150459992810
  0.8467527785997220  0.6454337002383497  0.3198304808995260
  0.8163361710348198  0.2944780199114447  0.0353247414694238
  0.8290610549983839  0.3135119539986277  0.2144997340000927
  0.3117770760015972  0.8135119539986277  0.1191157609976301
  0.3675546407165271  0.7853427685701462  0.3050954863734745
  0.4667180375791133  0.3068184455666412  0.1550456901642647
  0.5178141024252199  0.3058552391889648  0.3146533655818686
  0.0014890469983797  0.8135119539986277  0.2462943919974308
  0.9676109190403750  0.8215052892703483  0.0792761098391424
  0.1408525827631664  0.3234702845775033  0.1098796207879502
  0.1739170399992886  0.3135119539986277  0.2780890500009505
  0.6566330619974821  0.8135119539986277  0.1827050760027547
  0.6934917488651422  0.7944144027557840  0.3505957822995001
  0.3117770760015972  0.4770819539986277  0.1191157609976301
  0.3509616018790709  0.4980506728152179  0.2928633660913746
  0.8168532423582278  0.9968838519023535  0.0350902601983449
  0.8290610549983839  0.9770819539986277  0.2144997340000927
  0.0014890469983797  0.4770819539986277  0.2462943919974308
  0.9674600813235728  0.4690142695290760  0.0792899498845543
  0.4842050690024990  0.9770819539986277  0.1509104190011499
  0.5278843847740831  0.0136465137011257  0.3301220129055125
  0.6566330619974821  0.4770819539986277  0.1827050760027547
  0.6945502626553619  0.4983015443690562  0.3510117997499762
  0.1395571973312641  0.9685555769485745  0.1104079651488163
  0.1739170399992886  0.9770819539986277  0.2780890500009505
 
  0.00000000E+00  0.00000000E+00  0.00000000E+00
  0.00000000E+00  0.00000000E+00  0.00000000E+00
  0.00000000E+00  0.00000000E+00  0.00000000E+00
  0.00000000E+00  0.00000000E+00  0.00000000E+00
  0.00000000E+00  0.00000000E+00  0.00000000E+00
  0.00000000E+00  0.00000000E+00  0.00000000E+00
  0.00000000E+00  0.00000000E+00  0.00000000E+00
  0.00000000E+00  0.00000000E+00  0.00000000E+00
  0.00000000E+00  0.00000000E+00  0.00000000E+00
  0.00000000E+00  0.00000000E+00  0.00000000E+00
  0.00000000E+00  0.00000000E+00  0.00000000E+00
  0.00000000E+00  0.00000000E+00  0.00000000E+00
  0.00000000E+00  0.00000000E+00  0.00000000E+00
  0.00000000E+00  0.00000000E+00  0.00000000E+00
  0.00000000E+00  0.00000000E+00  0.00000000E+00
  0.00000000E+00  0.00000000E+00  0.00000000E+00
  0.00000000E+00  0.00000000E+00  0.00000000E+00
  0.00000000E+00  0.00000000E+00  0.00000000E+00
  0.00000000E+00  0.00000000E+00  0.00000000E+00
  0.00000000E+00  0.00000000E+00  0.00000000E+00
  0.00000000E+00  0.00000000E+00  0.00000000E+00
  0.00000000E+00  0.00000000E+00  0.00000000E+00
  0.00000000E+00  0.00000000E+00  0.00000000E+00
  0.00000000E+00  0.00000000E+00  0.00000000E+00
  0.00000000E+00  0.00000000E+00  0.00000000E+00
  0.00000000E+00  0.00000000E+00  0.00000000E+00
  0.00000000E+00  0.00000000E+00  0.00000000E+00
  0.00000000E+00  0.00000000E+00  0.00000000E+00
  0.00000000E+00  0.00000000E+00  0.00000000E+00
  0.00000000E+00  0.00000000E+00  0.00000000E+00
  0.00000000E+00  0.00000000E+00  0.00000000E+00
  0.00000000E+00  0.00000000E+00  0.00000000E+00
  0.00000000E+00  0.00000000E+00  0.00000000E+00
  0.00000000E+00  0.00000000E+00  0.00000000E+00
  0.00000000E+00  0.00000000E+00  0.00000000E+00
  0.00000000E+00  0.00000000E+00  0.00000000E+00
  0.00000000E+00  0.00000000E+00  0.00000000E+00
  0.00000000E+00  0.00000000E+00  0.00000000E+00
  0.00000000E+00  0.00000000E+00  0.00000000E+00
  0.00000000E+00  0.00000000E+00  0.00000000E+00
  0.00000000E+00  0.00000000E+00  0.00000000E+00
  0.00000000E+00  0.00000000E+00  0.00000000E+00
  0.00000000E+00  0.00000000E+00  0.00000000E+00
  0.00000000E+00  0.00000000E+00  0.00000000E+00
  0.00000000E+00  0.00000000E+00  0.00000000E+00
  0.00000000E+00  0.00000000E+00  0.00000000E+00
  0.00000000E+00  0.00000000E+00  0.00000000E+00
  0.00000000E+00  0.00000000E+00  0.00000000E+00
  0.00000000E+00  0.00000000E+00  0.00000000E+00
  0.00000000E+00  0.00000000E+00  0.00000000E+00
  0.00000000E+00  0.00000000E+00  0.00000000E+00
  0.00000000E+00  0.00000000E+00  0.00000000E+00
  0.00000000E+00  0.00000000E+00  0.00000000E+00
  0.00000000E+00  0.00000000E+00  0.00000000E+00
  0.00000000E+00  0.00000000E+00  0.00000000E+00
  0.00000000E+00  0.00000000E+00  0.00000000E+00
  0.00000000E+00  0.00000000E+00  0.00000000E+00
  0.00000000E+00  0.00000000E+00  0.00000000E+00
  0.00000000E+00  0.00000000E+00  0.00000000E+00
  0.00000000E+00  0.00000000E+00  0.00000000E+00
  0.00000000E+00  0.00000000E+00  0.00000000E+00
  0.00000000E+00  0.00000000E+00  0.00000000E+00
  0.00000000E+00  0.00000000E+00  0.00000000E+00
  0.00000000E+00  0.00000000E+00  0.00000000E+00
  0.00000000E+00  0.00000000E+00  0.00000000E+00
  0.00000000E+00  0.00000000E+00  0.00000000E+00
  0.00000000E+00  0.00000000E+00  0.00000000E+00
  0.00000000E+00  0.00000000E+00  0.00000000E+00
  0.00000000E+00  0.00000000E+00  0.00000000E+00
  0.00000000E+00  0.00000000E+00  0.00000000E+00
  0.00000000E+00  0.00000000E+00  0.00000000E+00
  0.00000000E+00  0.00000000E+00  0.00000000E+00
