Type_036 Type_136 
1.0
1.0079732984900000e+01 0.0000000000000000e+00 0.0000000000000000e+00 
3.5732980426999998e+00 9.4251025535000004e+00 0.0000000000000000e+00 
0.0000000000000000e+00 0.0000000000000000e+00 2.0683503555200002e+01 
Type_0 Type_1 
36 36 
Cartesian
   7.0436426038    9.3598619617    1.1611249734
   6.8428472823    7.4925021364    2.6255023872
   7.8205595795    6.0762060003    5.2510047951
   8.7982718832    4.6599098547    7.8765071823
   9.1472983140    2.6016585787    9.0654460329
   2.6177410398    3.8787025669    3.5006698634
   3.5954533370    2.4624064308    6.1261722506
   4.5731656443    1.0461102946    8.7516746378
  12.0425651754    5.6065057581    2.1612499450
   3.8381684951    6.9519601231    9.3443881144
   8.4723677858    0.2649030068    4.3758373189
  13.0233781257    8.2737094242    7.0013397268
   5.6107192687    5.2316268831    2.3303258891
   6.6181553448    3.9602312874    4.5573312982
   7.5958676419    2.5439351513    7.1828337061
   1.4153367986    1.7627278635    2.8069963665
   2.3930491058    0.3464317273    5.4324987744
   6.9440594422    8.3552381353    8.0580011616
   7.0709931545    6.8732063563    9.8863648539
   2.0281509817    3.4741027751    0.9980166772
   2.6217071780    4.7596194394    8.6401261482
   9.1323311458    8.3238634747    2.0503905274
  10.8432615872    7.5740308570    3.6821638427
  11.8209738809    6.1577347114    6.3076662299
   0.7426327406    1.2274139250    8.3610691683
   8.0586291202    5.6187289766    1.6619760929
   9.0229638192    4.3344252293    3.8636578220
  10.0006761229    2.9181290837    6.4891602092
   3.8201452831    2.1369218053    2.1133228903
   4.7978575767    0.7206256598    4.7388252775
   9.3488679166    8.7294320771    7.3643276854
  10.3027604903    7.6481300316    9.3765776695
   3.1683370733    7.9482247894    2.9884903458
   4.1460493805    6.5319286532    5.6139927537
   5.1237616741    5.1156325076    8.2394951409
  11.3596143882    9.4249784252    2.0049148297
   3.4922546352    8.9735513125    9.2003402293
   7.3240179245    3.9750699496    2.6266433982
   8.3331695783    2.4102897230    5.0505721933
   9.0705483396    1.1132275552    7.3103401657
   2.1483242272    1.4642695894    0.8723259482
   3.1303510322    0.2127862991    3.3002372616
   7.6813613786    8.2215927070    5.9257396488
   8.6590736757    6.8052965708    8.5512420359
   2.4785428324    6.0240892831    4.1754047171
   3.4562551396    4.6077931469    6.8009071043
   4.1790418667    3.3022825599    8.8974542177
  11.5805635236    7.4403854287    1.5499023299
   7.7435810286    7.4444301655    0.7247835914
   8.8865536866    6.5209886068    3.3083675538
   9.8642659903    5.1046924612    5.9338699617
  10.8419782875    3.6883963250    8.5593723489
   3.7577589829    4.3156574263    1.7606810766
   4.6614474441    2.9071890373    4.1835350300
   5.6391597413    1.4908929011    6.8090374172
   6.3978621534    0.1941500193    9.1367037148
   4.0096392479    8.7184920307    5.0587024855
   4.9873515415    7.3021958851    7.6842048934
   5.3618704188    5.8324888791   10.1536453491
   9.6628783823    0.6067804022    2.6645694525
   4.8635556503    7.1866300002    1.9598320603
   5.8243608699    6.0445040929    4.1916653223
   6.8020731671    4.6282079567    6.8171677301
   7.4208859448    3.5944233386    9.0500143409
   1.5992546310    2.4307045328    5.0668327985
   2.5769669246    1.0144083872    7.6923351856
   7.3632420099    8.9251362443    9.9618878988
  10.7012753086    3.8470006690    2.4413304113
   5.3022595801    0.8503778289    1.2558853262
   6.4825961574    0.1243639275    3.6385577491
  11.0271794060    8.2420075168    5.9420002540
  12.0048917133    6.8257113807    8.5675026618
