Type_048 Type_148 
1.0
6.2785599999999997e+00 0.0000000000000000e+00 0.0000000000000000e+00 
2.0928533957000002e+00 1.1060195513400000e+01 0.0000000000000000e+00 
0.0000000000000000e+00 0.0000000000000000e+00 2.9156820000000000e+01 
Type_0 Type_1 
48 48 
Cartesian
   1.6436996031    0.1820352343    4.4433094696
   1.6436996031    0.1820352343   14.0217194480
   0.5972729353    2.9470840242    9.2325144588
   0.7818875351    1.1486260054   18.7370215464
   1.6436996031    0.1820352343    1.9126360760
   1.6436996031    0.1820352343   11.4910460544
   0.5972729353    2.9470840242    6.7018410652
   0.5972729353    2.9470840242   16.2802510728
   1.6436996029    2.3736626798    3.1779727582
   1.6436996029    2.3736626798   12.7563827658
   3.7365529372    5.1387114808    7.9671777474
   3.9115125461    6.0534671803   16.0379618910
   4.7829796031    0.1820352343    4.4433094696
   4.7829796031    0.1820352343   14.0217194480
   3.7365529353    2.9470840242    9.2325144588
   3.9211675351    1.1486260054   18.7370215464
   4.7829796031    0.1820352343    1.9126360760
   4.7829796031    0.1820352343   11.4910460544
   3.7365529353    2.9470840242    6.7018410652
   3.7365529353    2.9470840242   16.2802510728
   4.7829796029    2.3736626798    3.1779727582
   4.7829796029    2.3736626798   12.7563827658
   6.8758329372    5.1387114808    7.9671777474
   7.0507925461    6.0534671803   16.0379618910
   2.6901263010    5.7121329910    4.4433094696
   2.6901263010    5.7121329910   14.0217194480
   1.6436996332    8.4771817809    9.2325144588
   1.6737066389    8.5001397203   18.6146542293
   2.8502742648    4.0217547448    1.8416613532
   2.6901263010    5.7121329910   11.4910460544
   1.6436996332    8.4771817809    6.7018410652
   1.6436996332    8.4771817809   16.2802510728
   2.8645540102    8.8192645434    4.6871066809
   2.6901263008    7.9037604365   12.7563827658
   4.7829796351   10.6688092375    7.9671777474
   4.7829796351   10.6688092375   17.5455877550
   5.8294063010    5.7121329910    4.4433094696
   5.8294063010    5.7121329910   14.0217194480
   4.7829796332    8.4771817809    9.2325144588
   4.8129866389    8.5001397203   18.6146542293
   5.9895542648    4.0217547448    1.8416613532
   5.8294063010    5.7121329910   11.4910460544
   4.7829796332    8.4771817809    6.7018410652
   4.7829796332    8.4771817809   16.2802510728
   6.0038340102    8.8192645434    4.6871066809
   5.8294063008    7.9037604365   12.7563827658
   7.9222596351   10.6688092375    7.9671777474
   7.9222596351   10.6688092375   17.5455877550
   3.1933975741    1.8488422817    1.8681190070
   3.2896094581    1.8428230771   11.1451505348
   2.2431827924    4.6078718781    6.3559455165
   2.2431827924    4.6078718781   15.9343555240
   3.2896094581    1.8428230771    4.7892049892
   3.2896094581    1.8428230771   14.3676149968
   1.2850834600    4.1971517927    0.5627576459
   2.2431827924    4.6078718781    9.5784100076
   1.1967561256    4.5821845740    3.1779727582
   1.1967561256    4.5821845740   12.7563827658
   2.2431827913    1.8171357730    7.9671777474
   2.2431827913    1.8171357730   17.5455877550
   6.3326775741    1.8488422817    1.8681190070
   6.4288894581    1.8428230771   11.1451505348
   5.3824627924    4.6078718781    6.3559455165
   5.3824627924    4.6078718781   15.9343555240
   6.4288894581    1.8428230771    4.7892049892
   6.4288894581    1.8428230771   14.3676149968
   4.4243634600    4.1971517927    0.5627576459
   5.3824627924    4.6078718781    9.5784100076
   4.3360361256    4.5821845740    3.1779727582
   4.3360361256    4.5821845740   12.7563827658
   5.3824627913    1.8171357730    7.9671777474
   5.3824627913    1.8171357730   17.5455877550
   4.3360361560    7.3729208338   11.1451505348
   3.2896094903   10.1379696347    6.3559455165
   3.2896094903   10.1379696347   15.9343555240
   4.3360361560    7.3729208338    4.7892049892
   4.3360361560    7.3729208338   14.3676149968
   2.1650707893   10.6452781857    0.7095193153
   3.2896094903   10.1379696347    9.5784100076
   3.2045726882   10.0220568469   18.8659083696
   2.2431828235   10.1122823307    3.1779727582
   2.2431828235   10.1122823307   12.7563827658
   3.2896094892    7.3472335297    7.9671777474
   3.2896094892    7.3472335297   17.5455877550
   7.4753161560    7.3729208338   11.1451505348
   6.4288894903   10.1379696347    6.3559455165
   6.4288894903   10.1379696347   15.9343555240
   7.4753161560    7.3729208338    4.7892049892
   7.4753161560    7.3729208338   14.3676149968
   5.3043507893   10.6452781857    0.7095193153
   6.4288894903   10.1379696347    9.5784100076
   6.3438526882   10.0220568469   18.8659083696
   5.3824628235   10.1122823307    3.1779727582
   5.3824628235   10.1122823307   12.7563827658
   6.4288894892    7.3472335297    7.9671777474
   6.4288894892    7.3472335297   17.5455877550
