Structure 11 made from -121-5.xsd file  
   1.00000000000000     
     9.4251025535000004    3.5732980426999998    0.0000000000000000
     0.0000000000000000   10.0797329848999997    0.0000000000000000
     0.0000000000000000    0.0000000000000000   20.5020095759999990
   Ni   S 
    36    36
Direct
  0.3743321509999973  0.7513621960000023  0.0947535029999997
  0.5246006630000011  0.6010936830000020  0.2228142370000015
  0.6748691760000014  0.4508251709999982  0.3508749710000032
  0.8251376879999981  0.3005566590000015  0.4789357049999978
  0.6074864759999983  0.1848745369999989  0.0093796800000021
  0.7577549889999986  0.0346060250000022  0.1374404139999967
  0.0582920129999991  0.7340689999999981  0.3935618820000002
  0.9080235010000024  0.8843375129999984  0.2655011479999985
  0.1411778260000034  0.3178498540000021  0.1801273259999974
  0.2914463380000001  0.1675813419999983  0.3081880599999991
  0.4417148510000004  0.0173128289999980  0.4362487940000008
  0.9909093139999996  0.4681183670000024  0.0520665920000027
  0.0099400029999970  0.1157543440000026  0.4112668759999991
  0.5591344660000033  0.5665598810000034  0.0270846740000010
  0.7094029780000000  0.4162913689999996  0.1551454080000028
  0.8596714910000003  0.2660228559999993  0.2832061419999974
  0.0928258160000013  0.6995351979999995  0.1978323200000034
  0.2430943279999980  0.5492666849999992  0.3258930539999980
  0.3933628409999983  0.3989981730000025  0.4539537879999997
  0.9425573030000010  0.8498037100000033  0.0697715860000017
  0.3259801410000023  0.1330475390000032  0.1124584969999987
  0.4762486529999990  0.9827790269999994  0.2405192310000004
  0.6265171659999993  0.8325105150000027  0.3685799650000021
  0.7767856780000031  0.6822420020000024  0.4966406989999967
  0.0496418460000001  0.3402585010000010  0.4451012910000003
  0.5988363080000028  0.7910640380000018  0.0609190890000022
  0.7491048210000031  0.6407955259999980  0.1889798229999968
  0.8993733329999998  0.4905270140000013  0.3170405569999986
  0.9822591459999970  0.0743078679999982  0.1036059999999992
  0.1325276580000008  0.9240393549999979  0.2316667340000009
  0.2827961710000011  0.7737708430000012  0.3597274680000027
  0.4330646829999978  0.6235023300000009  0.4877882019999973
  0.2154134709999980  0.5078202090000019  0.0182321770000016
  0.3656819830000018  0.3575516969999981  0.1462929110000033
  0.5159504960000021  0.2072831839999978  0.2743536449999979
  0.6662190079999988  0.0570146720000011  0.4024143789999997
  0.0638215769999988  0.2620847689999977  0.3410987290000023
  0.2140900899999991  0.1118162570000010  0.4691594629999969
  0.7632845529999983  0.5626217940000018  0.0849772609999988
  0.9135530650000021  0.4123532819999980  0.2130379950000005
  0.1467073900000031  0.8458656230000017  0.1276641729999994
  0.2969759030000034  0.6955971109999979  0.2557249070000012
  0.4472444150000001  0.5453285990000012  0.3837856399999993
  0.5975129269999968  0.3950600860000009  0.5118463740000010
  0.3798617149999970  0.2793779650000019  0.0422903500000018
  0.5301302279999973  0.1291094529999981  0.1703510840000035
  0.6803987400000011  0.9788409399999978  0.2984118179999982
  0.8306672519999978  0.8285724280000011  0.4264725519999999
  0.3776957110000012  0.9482106350000024  0.0430834730000029
  0.5279642240000015  0.7979421229999986  0.1711442069999976
  0.6782327359999982  0.6476736110000019  0.2992049409999993
  0.8285012489999986  0.4974050980000015  0.4272656750000010
  0.7611185490000025  0.2314544649999988  0.0857703839999999
  0.9113870609999992  0.0811859519999985  0.2138311180000017
  0.0616555739999995  0.9309174400000018  0.3418918520000034
  0.2119240860000033  0.7806489270000014  0.4699525859999980
  0.1445413860000002  0.5146982939999987  0.1284572949999969
  0.2948098990000005  0.3644297809999983  0.2565180289999986
  0.4450784109999972  0.2141612690000017  0.3845787630000004
  0.9942728740000035  0.6649668060000025  0.0003965610000023
  0.3271408760000014  0.6623354709999987  0.0000000000000000
  0.4774093879999981  0.5120669590000020  0.1280607340000017
  0.6276779009999984  0.3617984460000017  0.2561214680000035
  0.7779464130000022  0.2115299339999979  0.3841822019999981
  0.9282149249999989  0.0612614209999975  0.5122429359999998
  0.0111007380000032  0.6450422750000016  0.2988083790000005
  0.1613692509999964  0.4947737629999978  0.4268691130000022
  0.7105637129999991  0.9455792999999986  0.0426869109999970
  0.8608322259999994  0.7953107880000019  0.1707476449999987
  0.2442550629999971  0.0785546170000018  0.2134345569999994
  0.3945235759999974  0.9282861049999980  0.3414952910000011
  0.5447920880000012  0.7780175919999976  0.4695560250000028
 
  0.00000000E+00  0.00000000E+00  0.00000000E+00
  0.00000000E+00  0.00000000E+00  0.00000000E+00
  0.00000000E+00  0.00000000E+00  0.00000000E+00
  0.00000000E+00  0.00000000E+00  0.00000000E+00
  0.00000000E+00  0.00000000E+00  0.00000000E+00
  0.00000000E+00  0.00000000E+00  0.00000000E+00
  0.00000000E+00  0.00000000E+00  0.00000000E+00
  0.00000000E+00  0.00000000E+00  0.00000000E+00
  0.00000000E+00  0.00000000E+00  0.00000000E+00
  0.00000000E+00  0.00000000E+00  0.00000000E+00
  0.00000000E+00  0.00000000E+00  0.00000000E+00
  0.00000000E+00  0.00000000E+00  0.00000000E+00
  0.00000000E+00  0.00000000E+00  0.00000000E+00
  0.00000000E+00  0.00000000E+00  0.00000000E+00
  0.00000000E+00  0.00000000E+00  0.00000000E+00
  0.00000000E+00  0.00000000E+00  0.00000000E+00
  0.00000000E+00  0.00000000E+00  0.00000000E+00
  0.00000000E+00  0.00000000E+00  0.00000000E+00
  0.00000000E+00  0.00000000E+00  0.00000000E+00
  0.00000000E+00  0.00000000E+00  0.00000000E+00
  0.00000000E+00  0.00000000E+00  0.00000000E+00
  0.00000000E+00  0.00000000E+00  0.00000000E+00
  0.00000000E+00  0.00000000E+00  0.00000000E+00
  0.00000000E+00  0.00000000E+00  0.00000000E+00
  0.00000000E+00  0.00000000E+00  0.00000000E+00
  0.00000000E+00  0.00000000E+00  0.00000000E+00
  0.00000000E+00  0.00000000E+00  0.00000000E+00
  0.00000000E+00  0.00000000E+00  0.00000000E+00
  0.00000000E+00  0.00000000E+00  0.00000000E+00
  0.00000000E+00  0.00000000E+00  0.00000000E+00
  0.00000000E+00  0.00000000E+00  0.00000000E+00
  0.00000000E+00  0.00000000E+00  0.00000000E+00
  0.00000000E+00  0.00000000E+00  0.00000000E+00
  0.00000000E+00  0.00000000E+00  0.00000000E+00
  0.00000000E+00  0.00000000E+00  0.00000000E+00
  0.00000000E+00  0.00000000E+00  0.00000000E+00
  0.00000000E+00  0.00000000E+00  0.00000000E+00
  0.00000000E+00  0.00000000E+00  0.00000000E+00
  0.00000000E+00  0.00000000E+00  0.00000000E+00
  0.00000000E+00  0.00000000E+00  0.00000000E+00
  0.00000000E+00  0.00000000E+00  0.00000000E+00
  0.00000000E+00  0.00000000E+00  0.00000000E+00
  0.00000000E+00  0.00000000E+00  0.00000000E+00
  0.00000000E+00  0.00000000E+00  0.00000000E+00
  0.00000000E+00  0.00000000E+00  0.00000000E+00
  0.00000000E+00  0.00000000E+00  0.00000000E+00
  0.00000000E+00  0.00000000E+00  0.00000000E+00
  0.00000000E+00  0.00000000E+00  0.00000000E+00
  0.00000000E+00  0.00000000E+00  0.00000000E+00
  0.00000000E+00  0.00000000E+00  0.00000000E+00
  0.00000000E+00  0.00000000E+00  0.00000000E+00
  0.00000000E+00  0.00000000E+00  0.00000000E+00
  0.00000000E+00  0.00000000E+00  0.00000000E+00
  0.00000000E+00  0.00000000E+00  0.00000000E+00
  0.00000000E+00  0.00000000E+00  0.00000000E+00
  0.00000000E+00  0.00000000E+00  0.00000000E+00
  0.00000000E+00  0.00000000E+00  0.00000000E+00
  0.00000000E+00  0.00000000E+00  0.00000000E+00
  0.00000000E+00  0.00000000E+00  0.00000000E+00
  0.00000000E+00  0.00000000E+00  0.00000000E+00
  0.00000000E+00  0.00000000E+00  0.00000000E+00
  0.00000000E+00  0.00000000E+00  0.00000000E+00
  0.00000000E+00  0.00000000E+00  0.00000000E+00
  0.00000000E+00  0.00000000E+00  0.00000000E+00
  0.00000000E+00  0.00000000E+00  0.00000000E+00
  0.00000000E+00  0.00000000E+00  0.00000000E+00
  0.00000000E+00  0.00000000E+00  0.00000000E+00
  0.00000000E+00  0.00000000E+00  0.00000000E+00
  0.00000000E+00  0.00000000E+00  0.00000000E+00
  0.00000000E+00  0.00000000E+00  0.00000000E+00
  0.00000000E+00  0.00000000E+00  0.00000000E+00
  0.00000000E+00  0.00000000E+00  0.00000000E+00
