Type_027 Type_127 
1.0
9.5784099999999999e+00 0.0000000000000000e+00 0.0000000000000000e+00 
-4.7892049999999999e+00 8.8693028200999997e+00 0.0000000000000000e+00 
0.0000000000000000e+00 0.0000000000000000e+00 1.9011135740000000e+01 
Type_0 Type_1 
27 27 
Cartesian
   1.1893289779    8.6338051982    3.0967886968
   1.7973757105    7.0064240172    4.8934299332
   1.5698142363    5.9831141740    7.5480320657
   1.0701786460    2.7718485744    2.1201056537
   1.7973757057    1.4639370388    3.9147439465
   1.7973757009    0.3527923336    6.8508019064
  -1.5585735346    4.7669103476    0.6892382764
   6.5865807057    4.7907528894    2.9360579599
   6.5865807057    3.6796081754    5.8721159198
   6.0375602698    3.1622496180    8.1061135406
   3.1469132093    7.1478849996    2.7029497397
   3.0627123971    4.9566720992    4.1177058051
   3.0627124067    3.8455273851    7.0537637650
  -1.7264925981    8.2834879410    3.1390198184
  -1.7264925981    7.1723432269    6.0750777783
  -1.7390583081    6.1417479769    8.2559570192
   7.8519174067    2.7410009626    2.1603338318
   7.8519174019    1.6298562574    5.0963917917
   4.3280491029    7.0064240172    4.8934299332
   4.5571042214    5.9802227289    7.5490787608
   5.5713026945    2.0622414959    1.9526766608
   4.3280490981    1.4639370388    3.9147439465
   4.3280490933    0.3527923336    6.8508019064
   0.2353967785    6.4743047319    1.3287966100
  -0.4611559019    4.7907528894    2.9360579599
  -0.4611559019    3.6796081754    5.8721159198
   0.0606297311    3.1152896848    8.1047192433
   4.7086146197    5.8422596871    3.1515580577
   4.6739446400    4.8705796836    5.8449573907
   4.4089172420    4.2218552399    8.5987664968
   4.3742197894    0.3958857362    1.9345309461
  -0.1152603552    8.1973955254    4.8662714041
  -0.1565877002    7.2343995514    7.5437931859
   0.4130229498    4.3690279274    0.9886718435
  -0.1152603600    2.6549085470    3.8875854175
  -0.0768852334    1.7224047453    6.5848750703
   7.2166554645    0.7928477268    1.7042923154
   3.0591764700    8.5881727809    4.2260499720
   3.0657778734    7.1337597552    6.6399280439
   3.0627123971    3.0493145497    2.9179914114
   3.0627124067    1.9381698356    5.8540493713
   3.0627342782    0.7059775307    8.3688099504
  -1.7264925981    6.3761303915    1.9393054248
  -1.7264925981    5.2649856774    4.8753633847
  -1.7264926029    4.1538409722    7.8114213446
   1.4514801685    5.9817243888    2.9088994308
   1.4514801637    4.8705796836    5.8449573907
   1.6786616654    4.2049427546    8.5722468235
   1.6272396691    0.6923961663    2.0806675063
  -3.3377248315    8.1973955254    4.8662714041
  -3.3080505573    7.2405564863    7.5293451853
   6.2955805599    3.7901956123    1.1156197637
   6.2406851637    2.6549085470    3.8875854175
   6.2062950509    1.7377636685    6.6132787868
