Type_036 Type_136 
1.0
1.0079732984900000e+01 0.0000000000000000e+00 0.0000000000000000e+00 
3.5732980426999998e+00 9.4251025535000004e+00 0.0000000000000000e+00 
0.0000000000000000e+00 0.0000000000000000e+00 2.0683503555200002e+01 
Type_0 Type_1 
36 36 
Cartesian
   6.8428472823    7.4925021364    2.6255023872
   7.8205595795    6.0762060003    5.2510047951
   8.7982718832    4.6599098547    7.8765071823
   9.5614332544    3.2525916972   10.0262380612
   2.6177410398    3.8787025669    3.5006698634
   3.5954533370    2.4624064308    6.1261722506
   4.5731656443    1.0461102946    8.7516746378
  12.0724443564    5.6038636051    2.1430954536
   3.7904515158    7.3689329553    9.3379863722
   8.4723677858    0.2649030068    4.3758373189
  13.0233781257    8.2737094242    7.0013397268
   5.6216718008    5.2385129719    2.3237401592
   6.6181553448    3.9602312874    4.5573312982
   7.5958676419    2.5439351513    7.1828337061
   8.3928245577    1.1576235510    9.4808722961
   1.4153367986    1.7627278635    2.8069963665
   2.3930491058    0.3464317273    5.4324987744
   6.9440594422    8.3552381353    8.0580011616
   6.9771332912    6.8252655931    9.8100889551
   2.0284125280    3.4355248941    1.0003831734
   2.6626351292    4.7994915301    8.6559107185
   9.0043584840    8.4694481013    2.2016603547
  10.8432615872    7.5740308570    3.6821638427
  11.8209738809    6.1577347114    6.3076662299
   0.8391632834    1.5593510230    8.8053180418
   8.0615568589    5.6160010943    1.6617612194
   9.0229638192    4.3344252293    3.8636578220
  10.0006761229    2.9181290837    6.4891602092
   3.8201452831    2.1369218053    2.1133228903
   4.7978575767    0.7206256598    4.7388252775
   9.3488679166    8.7294320771    7.3643276854
  10.3173535463    7.7041251783    9.3471650591
   3.1683370733    7.9482247894    2.9884903458
   4.1460493805    6.5319286532    5.6139927537
   5.1237616741    5.1156325076    8.2394951409
   7.7044705319    0.0055223446    2.0037215839
   3.5767997059    9.3997928033    9.9349047975
   7.3282895441    3.9687216088    2.6289178559
   8.3331695783    2.4102897230    5.0505721933
   9.3108818755    0.9939935868    7.6760745804
   2.2556934820    1.4430340178    0.9593670225
   3.1303510322    0.2127862991    3.3002372616
   7.6813613786    8.2215927070    5.9257396488
   8.6590736757    6.8052965708    8.5512420359
   2.4785428324    6.0240892831    4.1754047171
   3.4562551396    4.6077931469    6.8009071043
   4.1945526643    3.3122608174    8.8985996380
  11.5805635236    7.4403854287    1.5499023299
   7.8224646025    7.4585433373    0.8233471699
   8.8865536866    6.5209886068    3.3083675538
   9.8642659903    5.1046924612    5.9338699617
  10.8419782875    3.6883963250    8.5593723489
   3.7551549937    4.3019590739    1.7584201182
   4.6614474441    2.9071890373    4.1835350300
   5.6391597413    1.4908929011    6.8090374172
   6.4913689429    0.2903885440    9.1404257220
   4.0096392479    8.7184920307    5.0587024855
   4.9873515415    7.3021958851    7.6842048934
   5.1478949576    5.9985854244   10.0969787931
   9.6255913451    0.5962348427    2.6387798801
   4.8667401545    7.1815160409    1.9828675795
   5.8243608699    6.0445040929    4.1916653223
   6.8020731671    4.6282079567    6.8171677301
   7.7767666542    3.2061725672    9.1242731962
   1.5992546310    2.4307045328    5.0668327985
   2.5769669246    1.0144083872    7.6923351856
   7.4222605664    8.8720468091    9.9537224499
  10.7012753086    3.8470006690    2.4413304113
   5.4254647823    0.9511042792    1.4329174325
   6.4996784313    0.1382962690    3.7038426305
  11.0271794060    8.2420075168    5.9420002540
  12.0048917133    6.8257113807    8.5675026618
