Structure 1 made from 021-2.xsd file    
   1.00000000000000     
    11.2351097479999993    3.6905792347999999    0.0000000000000000
     0.0000000000000000   11.8257374458999998    0.0000000000000000
     0.0000000000000000    0.0000000000000000   17.1992797923000005
   Ni   S 
    36    36
Direct
  0.4240881939999994  0.1938175490000020  0.1275082749999967
  0.0606737159999966  0.0572320420000025  0.2730442900000014
  0.1972592239999997  0.4206465199999982  0.4185803060000026
  0.1161207800000028  0.1338879739999967  0.0506052980000007
  0.2527062870000023  0.4973024519999996  0.1961413129999983
  0.3892917949999983  0.3607169450000001  0.3416773289999995
  0.0561912049999975  0.3259205450000024  0.1275082749999967
  0.1927767119999970  0.1893350380000030  0.2730442900000014
  0.3293622200000001  0.0527495310000035  0.4185803060000026
  0.9240881939999994  0.1938175490000020  0.1275082749999967
  0.5606737159999966  0.0572320420000025  0.2730442900000014
  0.6972592239999997  0.4206465199999982  0.4185803060000026
  0.6161207800000028  0.1338879739999967  0.0506052980000007
  0.7527062870000023  0.4973024519999996  0.1961413129999983
  0.8892917949999983  0.3607169450000001  0.3416773289999995
  0.5561912049999975  0.3259205450000024  0.1275082749999967
  0.6927767119999970  0.1893350380000030  0.2730442900000014
  0.8293622200000001  0.0527495310000035  0.4185803060000026
  0.4240881939999994  0.6938175490000020  0.1275082749999967
  0.0606737159999966  0.5572320420000025  0.2730442900000014
  0.1972592239999997  0.9206465199999982  0.4185803060000026
  0.1161207800000028  0.6338879739999967  0.0506052980000007
  0.2527062870000023  0.9973024519999996  0.1961413129999983
  0.3892917949999983  0.8607169450000001  0.3416773289999995
  0.0561912049999975  0.8259205450000024  0.1275082749999967
  0.1927767119999970  0.6893350380000030  0.2730442900000014
  0.3293622200000001  0.5527495310000035  0.4185803060000026
  0.9240881939999994  0.6938175490000020  0.1275082749999967
  0.5606737159999966  0.5572320420000025  0.2730442900000014
  0.6972592239999997  0.9206465199999982  0.4185803060000026
  0.6161207800000028  0.6338879739999967  0.0506052980000007
  0.7527062870000023  0.9973024519999996  0.1961413129999983
  0.8892917949999983  0.8607169450000001  0.3416773289999995
  0.5561912049999975  0.8259205450000024  0.1275082749999967
  0.6927767119999970  0.6893350380000030  0.2730442900000014
  0.8293622200000001  0.5527495310000035  0.4185803060000026
  0.1047397219999979  0.3134840279999977  0.0000000000000000
  0.2413252289999974  0.1768985200000017  0.1455360149999976
  0.3779107359999969  0.0403130130000022  0.2910720309999988
  0.3602126409999968  0.3897960979999979  0.0979253630000017
  0.4967981490000000  0.2532105909999984  0.2434613790000029
  0.1333836709999972  0.1166250839999989  0.3889973940000004
  0.4365247120000006  0.1452690329999982  0.0000000000000000
  0.0731102339999978  0.0086835250000021  0.1455360149999976
  0.2096957409999973  0.3720980029999978  0.2910720309999988
  0.6047397219999979  0.3134840279999977  0.0000000000000000
  0.7413252289999974  0.1768985200000017  0.1455360149999976
  0.8779107359999969  0.0403130130000022  0.2910720309999988
  0.8602126409999968  0.3897960979999979  0.0979253630000017
  0.9967981490000000  0.2532105909999984  0.2434613790000029
  0.6333836709999972  0.1166250839999989  0.3889973940000004
  0.9365247120000006  0.1452690329999982  0.0000000000000000
  0.5731102339999978  0.0086835250000021  0.1455360149999976
  0.7096957409999973  0.3720980029999978  0.2910720309999988
  0.1047397219999979  0.8134840279999977  0.0000000000000000
  0.2413252289999974  0.6768985200000017  0.1455360149999976
  0.3779107359999969  0.5403130130000022  0.2910720309999988
  0.3602126409999968  0.8897960979999979  0.0979253630000017
  0.4967981490000000  0.7532105909999984  0.2434613790000029
  0.1333836709999972  0.6166250839999989  0.3889973940000004
  0.4365247120000006  0.6452690329999982  0.0000000000000000
  0.0731102339999978  0.5086835250000021  0.1455360149999976
  0.2096957409999973  0.8720980029999978  0.2910720309999988
  0.6047397219999979  0.8134840279999977  0.0000000000000000
  0.7413252289999974  0.6768985200000017  0.1455360149999976
  0.8779107359999969  0.5403130130000022  0.2910720309999988
  0.8602126409999968  0.8897960979999979  0.0979253630000017
  0.9967981490000000  0.7532105909999984  0.2434613790000029
  0.6333836709999972  0.6166250839999989  0.3889973940000004
  0.9365247120000006  0.6452690329999982  0.0000000000000000
  0.5731102339999978  0.5086835250000021  0.1455360149999976
  0.7096957409999973  0.8720980029999978  0.2910720309999988
 
  0.00000000E+00  0.00000000E+00  0.00000000E+00
  0.00000000E+00  0.00000000E+00  0.00000000E+00
  0.00000000E+00  0.00000000E+00  0.00000000E+00
  0.00000000E+00  0.00000000E+00  0.00000000E+00
  0.00000000E+00  0.00000000E+00  0.00000000E+00
  0.00000000E+00  0.00000000E+00  0.00000000E+00
  0.00000000E+00  0.00000000E+00  0.00000000E+00
  0.00000000E+00  0.00000000E+00  0.00000000E+00
  0.00000000E+00  0.00000000E+00  0.00000000E+00
  0.00000000E+00  0.00000000E+00  0.00000000E+00
  0.00000000E+00  0.00000000E+00  0.00000000E+00
  0.00000000E+00  0.00000000E+00  0.00000000E+00
  0.00000000E+00  0.00000000E+00  0.00000000E+00
  0.00000000E+00  0.00000000E+00  0.00000000E+00
  0.00000000E+00  0.00000000E+00  0.00000000E+00
  0.00000000E+00  0.00000000E+00  0.00000000E+00
  0.00000000E+00  0.00000000E+00  0.00000000E+00
  0.00000000E+00  0.00000000E+00  0.00000000E+00
  0.00000000E+00  0.00000000E+00  0.00000000E+00
  0.00000000E+00  0.00000000E+00  0.00000000E+00
  0.00000000E+00  0.00000000E+00  0.00000000E+00
  0.00000000E+00  0.00000000E+00  0.00000000E+00
  0.00000000E+00  0.00000000E+00  0.00000000E+00
  0.00000000E+00  0.00000000E+00  0.00000000E+00
  0.00000000E+00  0.00000000E+00  0.00000000E+00
  0.00000000E+00  0.00000000E+00  0.00000000E+00
  0.00000000E+00  0.00000000E+00  0.00000000E+00
  0.00000000E+00  0.00000000E+00  0.00000000E+00
  0.00000000E+00  0.00000000E+00  0.00000000E+00
  0.00000000E+00  0.00000000E+00  0.00000000E+00
  0.00000000E+00  0.00000000E+00  0.00000000E+00
  0.00000000E+00  0.00000000E+00  0.00000000E+00
  0.00000000E+00  0.00000000E+00  0.00000000E+00
  0.00000000E+00  0.00000000E+00  0.00000000E+00
  0.00000000E+00  0.00000000E+00  0.00000000E+00
  0.00000000E+00  0.00000000E+00  0.00000000E+00
  0.00000000E+00  0.00000000E+00  0.00000000E+00
  0.00000000E+00  0.00000000E+00  0.00000000E+00
  0.00000000E+00  0.00000000E+00  0.00000000E+00
  0.00000000E+00  0.00000000E+00  0.00000000E+00
  0.00000000E+00  0.00000000E+00  0.00000000E+00
  0.00000000E+00  0.00000000E+00  0.00000000E+00
  0.00000000E+00  0.00000000E+00  0.00000000E+00
  0.00000000E+00  0.00000000E+00  0.00000000E+00
  0.00000000E+00  0.00000000E+00  0.00000000E+00
  0.00000000E+00  0.00000000E+00  0.00000000E+00
  0.00000000E+00  0.00000000E+00  0.00000000E+00
  0.00000000E+00  0.00000000E+00  0.00000000E+00
  0.00000000E+00  0.00000000E+00  0.00000000E+00
  0.00000000E+00  0.00000000E+00  0.00000000E+00
  0.00000000E+00  0.00000000E+00  0.00000000E+00
  0.00000000E+00  0.00000000E+00  0.00000000E+00
  0.00000000E+00  0.00000000E+00  0.00000000E+00
  0.00000000E+00  0.00000000E+00  0.00000000E+00
  0.00000000E+00  0.00000000E+00  0.00000000E+00
  0.00000000E+00  0.00000000E+00  0.00000000E+00
  0.00000000E+00  0.00000000E+00  0.00000000E+00
  0.00000000E+00  0.00000000E+00  0.00000000E+00
  0.00000000E+00  0.00000000E+00  0.00000000E+00
  0.00000000E+00  0.00000000E+00  0.00000000E+00
  0.00000000E+00  0.00000000E+00  0.00000000E+00
  0.00000000E+00  0.00000000E+00  0.00000000E+00
  0.00000000E+00  0.00000000E+00  0.00000000E+00
  0.00000000E+00  0.00000000E+00  0.00000000E+00
  0.00000000E+00  0.00000000E+00  0.00000000E+00
  0.00000000E+00  0.00000000E+00  0.00000000E+00
  0.00000000E+00  0.00000000E+00  0.00000000E+00
  0.00000000E+00  0.00000000E+00  0.00000000E+00
  0.00000000E+00  0.00000000E+00  0.00000000E+00
  0.00000000E+00  0.00000000E+00  0.00000000E+00
  0.00000000E+00  0.00000000E+00  0.00000000E+00
  0.00000000E+00  0.00000000E+00  0.00000000E+00
