Structure 1 made from 021-2.xsd file
1.0
       11.2351097480        3.6905792348        0.0000000000
        0.0000000000       11.8257374459        0.0000000000
        0.0000000000        0.0000000000       17.1992797923
   Ni    S
   36   36
Direct
     0.424088194     0.193817549     0.127508275
     0.060673716     0.057232042     0.273044290
     0.197259224     0.420646520     0.418580306
     0.116120780     0.133887974     0.050605298
     0.252706287     0.497302452     0.196141313
     0.389291795     0.360716945     0.341677329
     0.056191205     0.325920545     0.127508275
     0.192776712     0.189335038     0.273044290
     0.329362220     0.052749531     0.418580306
     0.924088194     0.193817549     0.127508275
     0.560673716     0.057232042     0.273044290
     0.697259224     0.420646520     0.418580306
     0.616120780     0.133887974     0.050605298
     0.752706287     0.497302452     0.196141313
     0.889291795     0.360716945     0.341677329
     0.556191205     0.325920545     0.127508275
     0.692776712     0.189335038     0.273044290
     0.829362220     0.052749531     0.418580306
     0.424088194     0.693817549     0.127508275
     0.060673716     0.557232042     0.273044290
     0.197259224     0.920646520     0.418580306
     0.116120780     0.633887974     0.050605298
     0.252706287     0.997302452     0.196141313
     0.389291795     0.860716945     0.341677329
     0.056191205     0.825920545     0.127508275
     0.192776712     0.689335038     0.273044290
     0.329362220     0.552749531     0.418580306
     0.924088194     0.693817549     0.127508275
     0.560673716     0.557232042     0.273044290
     0.697259224     0.920646520     0.418580306
     0.616120780     0.633887974     0.050605298
     0.752706287     0.997302452     0.196141313
     0.889291795     0.860716945     0.341677329
     0.556191205     0.825920545     0.127508275
     0.692776712     0.689335038     0.273044290
     0.829362220     0.552749531     0.418580306
     0.104739722     0.313484028     0.000000000
     0.241325229     0.176898520     0.145536015
     0.377910736     0.040313013     0.291072031
     0.360212641     0.389796098     0.097925363
     0.496798149     0.253210591     0.243461379
     0.133383671     0.116625084     0.388997394
     0.436524712     0.145269033     0.000000000
     0.073110234     0.008683525     0.145536015
     0.209695741     0.372098003     0.291072031
     0.604739722     0.313484028     0.000000000
     0.741325229     0.176898520     0.145536015
     0.877910736     0.040313013     0.291072031
     0.860212641     0.389796098     0.097925363
     0.996798149     0.253210591     0.243461379
     0.633383671     0.116625084     0.388997394
     0.936524712     0.145269033     0.000000000
     0.573110234     0.008683525     0.145536015
     0.709695741     0.372098003     0.291072031
     0.104739722     0.813484028     0.000000000
     0.241325229     0.676898520     0.145536015
     0.377910736     0.540313013     0.291072031
     0.360212641     0.889796098     0.097925363
     0.496798149     0.753210591     0.243461379
     0.133383671     0.616625084     0.388997394
     0.436524712     0.645269033     0.000000000
     0.073110234     0.508683525     0.145536015
     0.209695741     0.872098003     0.291072031
     0.604739722     0.813484028     0.000000000
     0.741325229     0.676898520     0.145536015
     0.877910736     0.540313013     0.291072031
     0.860212641     0.889796098     0.097925363
     0.996798149     0.753210591     0.243461379
     0.633383671     0.616625084     0.388997394
     0.936524712     0.645269033     0.000000000
     0.573110234     0.508683525     0.145536015
     0.709695741     0.872098003     0.291072031
