Structure 1 made from -211-10.xsd file  
   1.00000000000000     
     9.4251025535000004    3.5732980426999998    0.0000000000000000
     0.0000000000000000   10.0797329848999997    0.0000000000000000
     0.0000000000000000    0.0000000000000000   20.6861815675999985
   Ni   S 
    37    37
Direct
  0.2467903809999967  0.9452203000000026  0.0089031409999976
  0.3970588939999971  0.7949517870000022  0.1358237319999986
  0.5473274060000008  0.6446832749999984  0.2627443229999997
  0.6975959190000012  0.4944147619999981  0.3896649149999973
  0.8478644309999979  0.3441462500000014  0.5165855059999984
  0.1138150649999972  0.4115289499999975  0.1781305960000026
  0.2640835770000010  0.2612604369999971  0.3050511869999966
  0.4143520889999976  0.1109919250000004  0.4319717779999976
  0.9635465519999968  0.5617974620000012  0.0512100050000015
  0.1311082599999978  0.7275690869999991  0.4742786420000016
  0.6803027229999969  0.1783746250000036  0.0935168680000018
  0.8305712350000007  0.0281061120000032  0.2204374599999994
  0.9808397480000011  0.8778375999999994  0.3473580510000005
  0.3573570510000010  0.5704476299999968  0.1022905499999993
  0.5076255640000014  0.4201791170000035  0.2292111419999969
  0.6578940759999981  0.2699106049999997  0.3561317329999980
  0.8081625880000018  0.1196420930000031  0.4830523239999991
  0.0741132220000011  0.1870247920000025  0.1445974140000033
  0.2243817339999978  0.0367562799999988  0.2715180049999972
  0.3746502469999982  0.8864877669999984  0.3984385970000019
  0.9238447099999973  0.3372933050000029  0.0176768230000022
  0.0914064179999983  0.5030649300000007  0.4407454600000023
  0.6406008800000009  0.9538704670000016  0.0599836869999990
  0.7908693930000013  0.8036019549999978  0.1869042780000001
  0.9411379049999979  0.6533334419999974  0.3138248690000012
  0.0326667459999967  0.1593439350000025  0.4495191419999998
  0.5818612090000030  0.6101494720000034  0.0687573689999965
  0.7321297209999997  0.4598809599999996  0.1956779599999976
  0.8823982330000035  0.3096124480000029  0.3225985509999987
  0.2986173789999995  0.2267266349999986  0.1110642330000005
  0.4488858919999998  0.0764581219999982  0.2379848240000015
  0.5991544039999965  0.9261896100000016  0.3649054150000026
  0.7494229169999969  0.7759210979999978  0.4918260059999966
  0.0153735499999996  0.8433037969999972  0.1533710960000008
  0.1656420630000000  0.6930352850000006  0.2802916870000018
  0.3159105749999966  0.5427667729999968  0.4072122789999995
  0.8651050380000029  0.9935723099999976  0.0264505049999997
  0.0366048329999984  0.9551938480000004  0.5068963029999978
  0.5857992950000011  0.4059993859999977  0.1261345300000016
  0.7360678080000014  0.2557308729999974  0.2530551210000027
  0.8863363199999981  0.1054623610000007  0.3799757119999967
  0.1522869539999974  0.1728450600000002  0.0415208020000009
  0.3025554660000012  0.0225765480000035  0.1684413930000019
  0.4528239790000015  0.8723080359999997  0.2953619849999995
  0.6030924909999982  0.7220395229999994  0.4222825760000006
  0.0193116370000013  0.6391537109999987  0.2107482569999988
  0.1695801489999980  0.4888851979999984  0.3376688479999999
  0.3198486619999983  0.3386166860000017  0.4645894390000009
  0.8690431249999975  0.7894222230000025  0.0838276659999977
  0.4860856190000007  0.8421430619999981  0.0419138330000024
  0.6363541309999974  0.6918745500000014  0.1688344240000035
  0.7866226430000012  0.5416060379999976  0.2957550149999975
  0.9368911560000015  0.3913375249999973  0.4226756070000022
  0.2028417889999972  0.4587202250000004  0.0842206969999992
  0.3531103019999975  0.3084517120000001  0.2111412880000003
  0.5033788140000013  0.1581832000000034  0.3380618790000014
  0.6536473270000016  0.0079146879999996  0.4649824700000025
  0.0698664729999976  0.9250288750000024  0.2534481519999972
  0.2201349850000014  0.7747603629999986  0.3803687429999982
  0.3704034969999981  0.6244918499999983  0.5072893339999993
  0.9195979599999973  0.0752973869999991  0.1265275599999995
  0.2002104540000005  0.7915882269999983  0.0846137269999971
  0.3504789670000008  0.6413197139999980  0.2115343190000019
  0.5007474789999975  0.4910512020000013  0.3384549100000029
  0.6510159910000013  0.3407826890000010  0.4653755009999969
  0.0672351369999973  0.2578968770000003  0.2538411820000022
  0.2175036499999976  0.1076283640000000  0.3807617739999998
  0.3677721620000014  0.9573598520000033  0.5076823650000009
  0.7666981129999968  0.5584339019999973  0.0000000000000000
  0.9169666250000006  0.4081653889999970  0.1269205910000011
  0.4834542830000004  0.1750110640000031  0.0423068639999968
  0.6337227960000007  0.0247425519999993  0.1692274549999979
  0.7839913079999974  0.8744740389999990  0.2961480459999990
  0.9342598209999977  0.7242055270000023  0.4230686370000001
 
  0.00000000E+00  0.00000000E+00  0.00000000E+00
  0.00000000E+00  0.00000000E+00  0.00000000E+00
  0.00000000E+00  0.00000000E+00  0.00000000E+00
  0.00000000E+00  0.00000000E+00  0.00000000E+00
  0.00000000E+00  0.00000000E+00  0.00000000E+00
  0.00000000E+00  0.00000000E+00  0.00000000E+00
  0.00000000E+00  0.00000000E+00  0.00000000E+00
  0.00000000E+00  0.00000000E+00  0.00000000E+00
  0.00000000E+00  0.00000000E+00  0.00000000E+00
  0.00000000E+00  0.00000000E+00  0.00000000E+00
  0.00000000E+00  0.00000000E+00  0.00000000E+00
  0.00000000E+00  0.00000000E+00  0.00000000E+00
  0.00000000E+00  0.00000000E+00  0.00000000E+00
  0.00000000E+00  0.00000000E+00  0.00000000E+00
  0.00000000E+00  0.00000000E+00  0.00000000E+00
  0.00000000E+00  0.00000000E+00  0.00000000E+00
  0.00000000E+00  0.00000000E+00  0.00000000E+00
  0.00000000E+00  0.00000000E+00  0.00000000E+00
  0.00000000E+00  0.00000000E+00  0.00000000E+00
  0.00000000E+00  0.00000000E+00  0.00000000E+00
  0.00000000E+00  0.00000000E+00  0.00000000E+00
  0.00000000E+00  0.00000000E+00  0.00000000E+00
  0.00000000E+00  0.00000000E+00  0.00000000E+00
  0.00000000E+00  0.00000000E+00  0.00000000E+00
  0.00000000E+00  0.00000000E+00  0.00000000E+00
  0.00000000E+00  0.00000000E+00  0.00000000E+00
  0.00000000E+00  0.00000000E+00  0.00000000E+00
  0.00000000E+00  0.00000000E+00  0.00000000E+00
  0.00000000E+00  0.00000000E+00  0.00000000E+00
  0.00000000E+00  0.00000000E+00  0.00000000E+00
  0.00000000E+00  0.00000000E+00  0.00000000E+00
  0.00000000E+00  0.00000000E+00  0.00000000E+00
  0.00000000E+00  0.00000000E+00  0.00000000E+00
  0.00000000E+00  0.00000000E+00  0.00000000E+00
  0.00000000E+00  0.00000000E+00  0.00000000E+00
  0.00000000E+00  0.00000000E+00  0.00000000E+00
  0.00000000E+00  0.00000000E+00  0.00000000E+00
  0.00000000E+00  0.00000000E+00  0.00000000E+00
  0.00000000E+00  0.00000000E+00  0.00000000E+00
  0.00000000E+00  0.00000000E+00  0.00000000E+00
  0.00000000E+00  0.00000000E+00  0.00000000E+00
  0.00000000E+00  0.00000000E+00  0.00000000E+00
  0.00000000E+00  0.00000000E+00  0.00000000E+00
  0.00000000E+00  0.00000000E+00  0.00000000E+00
  0.00000000E+00  0.00000000E+00  0.00000000E+00
  0.00000000E+00  0.00000000E+00  0.00000000E+00
  0.00000000E+00  0.00000000E+00  0.00000000E+00
  0.00000000E+00  0.00000000E+00  0.00000000E+00
  0.00000000E+00  0.00000000E+00  0.00000000E+00
  0.00000000E+00  0.00000000E+00  0.00000000E+00
  0.00000000E+00  0.00000000E+00  0.00000000E+00
  0.00000000E+00  0.00000000E+00  0.00000000E+00
  0.00000000E+00  0.00000000E+00  0.00000000E+00
  0.00000000E+00  0.00000000E+00  0.00000000E+00
  0.00000000E+00  0.00000000E+00  0.00000000E+00
  0.00000000E+00  0.00000000E+00  0.00000000E+00
  0.00000000E+00  0.00000000E+00  0.00000000E+00
  0.00000000E+00  0.00000000E+00  0.00000000E+00
  0.00000000E+00  0.00000000E+00  0.00000000E+00
  0.00000000E+00  0.00000000E+00  0.00000000E+00
  0.00000000E+00  0.00000000E+00  0.00000000E+00
  0.00000000E+00  0.00000000E+00  0.00000000E+00
  0.00000000E+00  0.00000000E+00  0.00000000E+00
  0.00000000E+00  0.00000000E+00  0.00000000E+00
  0.00000000E+00  0.00000000E+00  0.00000000E+00
  0.00000000E+00  0.00000000E+00  0.00000000E+00
  0.00000000E+00  0.00000000E+00  0.00000000E+00
  0.00000000E+00  0.00000000E+00  0.00000000E+00
  0.00000000E+00  0.00000000E+00  0.00000000E+00
  0.00000000E+00  0.00000000E+00  0.00000000E+00
  0.00000000E+00  0.00000000E+00  0.00000000E+00
  0.00000000E+00  0.00000000E+00  0.00000000E+00
  0.00000000E+00  0.00000000E+00  0.00000000E+00
  0.00000000E+00  0.00000000E+00  0.00000000E+00
