Structure 11 made from -112-9.xsd file  
   1.00000000000000     
    16.8846940542000006    0.0000000000000000    0.0000000000000000
     0.0000000000000000    9.5784099999999999    0.0000000000000000
     0.0000000000000000    0.0000000000000000   16.2994563815000006
   Ni   S 
    38    38
Direct
  0.7800463069999992  0.1452969540000026  0.1276188880000007
  0.8146142639999994  0.1452969540000026  0.3168610009999995
  0.2973302850000010  0.6452969540000026  0.2222399440000018
  0.4351903210000003  0.1452969540000026  0.0645381839999999
  0.4697582780000005  0.1452969540000026  0.2537802960000022
  0.9524742999999987  0.6452969540000026  0.1591592400000010
  0.9870422569999988  0.6452969540000026  0.3484013529999999
  0.0903343350000014  0.1452969540000026  0.0014574799999991
  0.1249022929999981  0.1452969540000026  0.1906995920000014
  0.1594702499999983  0.1452969540000026  0.3799417050000002
  0.6076183139999998  0.6452969540000026  0.0960785360000003
  0.6421862709999999  0.6452969540000026  0.2853206489999991
  0.9075827759999981  0.0131939540000019  0.1026194370000013
  0.9421507329999983  0.0131939540000019  0.2918615500000001
  0.3902987969999998  0.5131939540000019  0.0079983810000002
  0.4248667549999965  0.5131939540000019  0.1972404939999990
  0.4594347119999966  0.5131939540000019  0.3864826060000013
  0.5627267899999993  0.0131939540000019  0.0395387330000005
  0.5972947469999994  0.0131939540000019  0.2287808459999994
  0.0800107689999976  0.5131939540000019  0.1341597890000017
  0.1145787259999977  0.5131939540000019  0.3234019020000005
  0.2524387619999970  0.0131939540000019  0.1657001410000021
  0.2870067189999972  0.0131939540000019  0.3549422540000009
  0.7351547829999987  0.5131939540000019  0.0710790850000009
  0.7697227399999989  0.5131939540000019  0.2603211979999998
  0.9075827759999981  0.2773999540000034  0.1026194370000013
  0.9421507329999983  0.2773999540000034  0.2918615500000001
  0.3902987969999998  0.7773999540000034  0.0079983810000002
  0.4248667549999965  0.7773999540000034  0.1972404939999990
  0.4594347119999966  0.7773999540000034  0.3864826060000013
  0.5627267899999993  0.2773999540000034  0.0395387330000005
  0.5972947469999994  0.2773999540000034  0.2287808459999994
  0.0800107689999976  0.7773999540000034  0.1341597890000017
  0.1145787259999977  0.7773999540000034  0.3234019020000005
  0.2524387619999970  0.2773999540000034  0.1657001410000021
  0.2870067189999972  0.2773999540000034  0.3549422540000009
  0.7351547829999987  0.7773999540000034  0.0710790850000009
  0.7697227399999989  0.7773999540000034  0.2603211979999998
  0.0260291629999969  0.1452969540000026  0.3781912150000011
  0.9914612059999968  0.1452969540000026  0.1889491029999988
  0.4741772269999984  0.6452969540000026  0.0943280460000011
  0.5087451839999986  0.6452969540000026  0.2835701589999999
  0.6466052199999979  0.1452969540000026  0.1258683989999980
  0.6811731769999980  0.1452969540000026  0.3151105110000003
  0.1293212409999995  0.6452969540000026  0.0312473420000003
  0.1638891979999997  0.6452969540000026  0.2204894549999992
  0.3017492339999990  0.1452969540000026  0.0627876940000007
  0.3363171909999991  0.1452969540000026  0.2520298069999996
  0.8190332129999973  0.6452969540000026  0.1574087509999984
  0.8536011699999975  0.6452969540000026  0.3466508630000007
  0.7944930970000001  0.3135119539999991  0.0315403520000004
  0.8290610549999968  0.3135119539999991  0.2207824649999992
  0.3117770759999985  0.8135119539999991  0.1261614080000015
  0.3463450329999986  0.8135119539999991  0.3154035210000004
  0.4842050689999979  0.3135119539999991  0.1577017609999984
  0.5187730259999981  0.3135119539999991  0.3469438730000007
  0.0014890469999997  0.8135119539999991  0.2523228169999996
  0.9669210899999996  0.8135119539999991  0.0630807040000008
  0.1393490829999990  0.3135119539999991  0.0946210560000011
  0.1739170399999992  0.3135119539999991  0.2838631690000000
  0.6220651049999972  0.8135119539999991  0.0000000000000000
  0.6566330619999974  0.8135119539999991  0.1892421129999988
  0.6912010189999975  0.8135119539999991  0.3784842250000011
  0.3117770759999985  0.4770819539999991  0.1261614080000015
  0.3463450329999986  0.4770819539999991  0.3154035210000004
  0.7944930970000001  0.9770819539999991  0.0315403520000004
  0.8290610549999968  0.9770819539999991  0.2207824649999992
  0.0014890469999997  0.4770819539999991  0.2523228169999996
  0.9669210899999996  0.4770819539999991  0.0630807040000008
  0.4842050689999979  0.9770819539999991  0.1577017609999984
  0.5187730259999981  0.9770819539999991  0.3469438730000007
  0.6220651049999972  0.4770819539999991  0.0000000000000000
  0.6566330619999974  0.4770819539999991  0.1892421129999988
  0.6912010189999975  0.4770819539999991  0.3784842250000011
  0.1393490829999990  0.9770819539999991  0.0946210560000011
  0.1739170399999992  0.9770819539999991  0.2838631690000000
 
  0.00000000E+00  0.00000000E+00  0.00000000E+00
  0.00000000E+00  0.00000000E+00  0.00000000E+00
  0.00000000E+00  0.00000000E+00  0.00000000E+00
  0.00000000E+00  0.00000000E+00  0.00000000E+00
  0.00000000E+00  0.00000000E+00  0.00000000E+00
  0.00000000E+00  0.00000000E+00  0.00000000E+00
  0.00000000E+00  0.00000000E+00  0.00000000E+00
  0.00000000E+00  0.00000000E+00  0.00000000E+00
  0.00000000E+00  0.00000000E+00  0.00000000E+00
  0.00000000E+00  0.00000000E+00  0.00000000E+00
  0.00000000E+00  0.00000000E+00  0.00000000E+00
  0.00000000E+00  0.00000000E+00  0.00000000E+00
  0.00000000E+00  0.00000000E+00  0.00000000E+00
  0.00000000E+00  0.00000000E+00  0.00000000E+00
  0.00000000E+00  0.00000000E+00  0.00000000E+00
  0.00000000E+00  0.00000000E+00  0.00000000E+00
  0.00000000E+00  0.00000000E+00  0.00000000E+00
  0.00000000E+00  0.00000000E+00  0.00000000E+00
  0.00000000E+00  0.00000000E+00  0.00000000E+00
  0.00000000E+00  0.00000000E+00  0.00000000E+00
  0.00000000E+00  0.00000000E+00  0.00000000E+00
  0.00000000E+00  0.00000000E+00  0.00000000E+00
  0.00000000E+00  0.00000000E+00  0.00000000E+00
  0.00000000E+00  0.00000000E+00  0.00000000E+00
  0.00000000E+00  0.00000000E+00  0.00000000E+00
  0.00000000E+00  0.00000000E+00  0.00000000E+00
  0.00000000E+00  0.00000000E+00  0.00000000E+00
  0.00000000E+00  0.00000000E+00  0.00000000E+00
  0.00000000E+00  0.00000000E+00  0.00000000E+00
  0.00000000E+00  0.00000000E+00  0.00000000E+00
  0.00000000E+00  0.00000000E+00  0.00000000E+00
  0.00000000E+00  0.00000000E+00  0.00000000E+00
  0.00000000E+00  0.00000000E+00  0.00000000E+00
  0.00000000E+00  0.00000000E+00  0.00000000E+00
  0.00000000E+00  0.00000000E+00  0.00000000E+00
  0.00000000E+00  0.00000000E+00  0.00000000E+00
  0.00000000E+00  0.00000000E+00  0.00000000E+00
  0.00000000E+00  0.00000000E+00  0.00000000E+00
  0.00000000E+00  0.00000000E+00  0.00000000E+00
  0.00000000E+00  0.00000000E+00  0.00000000E+00
  0.00000000E+00  0.00000000E+00  0.00000000E+00
  0.00000000E+00  0.00000000E+00  0.00000000E+00
  0.00000000E+00  0.00000000E+00  0.00000000E+00
  0.00000000E+00  0.00000000E+00  0.00000000E+00
  0.00000000E+00  0.00000000E+00  0.00000000E+00
  0.00000000E+00  0.00000000E+00  0.00000000E+00
  0.00000000E+00  0.00000000E+00  0.00000000E+00
  0.00000000E+00  0.00000000E+00  0.00000000E+00
  0.00000000E+00  0.00000000E+00  0.00000000E+00
  0.00000000E+00  0.00000000E+00  0.00000000E+00
  0.00000000E+00  0.00000000E+00  0.00000000E+00
  0.00000000E+00  0.00000000E+00  0.00000000E+00
  0.00000000E+00  0.00000000E+00  0.00000000E+00
  0.00000000E+00  0.00000000E+00  0.00000000E+00
  0.00000000E+00  0.00000000E+00  0.00000000E+00
  0.00000000E+00  0.00000000E+00  0.00000000E+00
  0.00000000E+00  0.00000000E+00  0.00000000E+00
  0.00000000E+00  0.00000000E+00  0.00000000E+00
  0.00000000E+00  0.00000000E+00  0.00000000E+00
  0.00000000E+00  0.00000000E+00  0.00000000E+00
  0.00000000E+00  0.00000000E+00  0.00000000E+00
  0.00000000E+00  0.00000000E+00  0.00000000E+00
  0.00000000E+00  0.00000000E+00  0.00000000E+00
  0.00000000E+00  0.00000000E+00  0.00000000E+00
  0.00000000E+00  0.00000000E+00  0.00000000E+00
  0.00000000E+00  0.00000000E+00  0.00000000E+00
  0.00000000E+00  0.00000000E+00  0.00000000E+00
  0.00000000E+00  0.00000000E+00  0.00000000E+00
  0.00000000E+00  0.00000000E+00  0.00000000E+00
  0.00000000E+00  0.00000000E+00  0.00000000E+00
  0.00000000E+00  0.00000000E+00  0.00000000E+00
  0.00000000E+00  0.00000000E+00  0.00000000E+00
  0.00000000E+00  0.00000000E+00  0.00000000E+00
  0.00000000E+00  0.00000000E+00  0.00000000E+00
  0.00000000E+00  0.00000000E+00  0.00000000E+00
  0.00000000E+00  0.00000000E+00  0.00000000E+00
