Type_037 Type_137 
1.0
1.6884694054200001e+01 0.0000000000000000e+00 0.0000000000000000e+00 
0.0000000000000000e+00 9.5784099999999999e+00 0.0000000000000000e+00 
0.0000000000000000e+00 0.0000000000000000e+00 1.6197619147600001e+01 
Type_0 Type_1 
37 37 
Cartesian
   1.1489238085    8.7667018567    4.6755158826
   1.6584552767    8.8103093545    2.2030558722
   9.8312243663    4.0556245298    3.4920210149
  10.5168098365    3.5737574931    1.2318218036
   4.0084365668    4.0556245298    4.5202022096
   4.5842581738    3.9211450461    1.7954124305
  12.2273964235    8.8851938381    5.5036972804
  12.7426182745    8.8448295298    2.9779304176
   6.9198304750    8.8448295298    4.0061116123
   7.5087015701    8.7059447550    1.3577767104
  15.7433509270    3.2637412675    4.6891099933
  15.5922099106    4.0943059822    2.5369356488
   6.3580425568    5.3209612260    5.0279383286
   7.6778101065    5.3209612260    3.0845435679
   6.4269835028    5.3209612262    1.0650005304
  15.8283224530    0.5317562260    4.6268153438
  16.4119918310    0.5317562260    1.5422717759
   1.8550223070    5.3209612260    4.1127247464
   2.6755969633    5.3209612261    1.3042914623
   9.3423676264    0.5317562267    4.5509415025
  10.5892040147    0.5317562260    2.5704529706
   4.7664161983    0.5317562260    3.5986341491
   5.5152280286    0.5317562261    0.8802702554
  12.1710198746    5.3209612273    3.9832267524
  13.5005979229    5.3209612260    2.0563623732
   1.1489238084    1.8752205953    4.6755158826
   1.6584552767    1.8316130976    2.2030558722
   9.8312243663    6.5862979222    3.4920210149
  10.5168098365    7.0681649590    1.2318218037
   4.0084365668    6.5862979222    4.5202022096
   4.5842581737    6.7207774060    1.7954124306
  12.2273964144    1.7567286002    5.5036972845
  12.7426182745    1.7970929222    2.9779304176
   6.9198304750    1.7970929222    4.0061116123
   7.5087015701    1.9359776971    1.3577767104
  15.7433509263    7.3781811851    4.6891099933
  15.5922099110    6.5476164696    2.5369356488
   0.6364969673    1.8347063656    0.4704553475
   7.7892393774    6.8800193285    4.4601408567
   8.5054091306    6.9321934642    1.5660279006
  16.4660057894    1.9360436733    6.0142415001
  16.6559214603    2.1429884642    3.1082996927
   2.1115733913    7.0049982180    5.2875950059
   2.6826213142    6.9321934642    2.5942090953
  10.8331336608    2.1429884642    4.1364808712
  11.5762680584    1.8743551276    1.2858496993
   5.0248590302    2.2176312005    4.7906202700
   5.5940152224    2.1429884642    2.0801184980
  13.7445275690    6.9321934642    3.6223902738
  14.4864389580    6.6552229230    0.8798906448
   2.5133042869    0.5317562260    3.6271661742
  10.4175829705    5.3209612260    4.9993280172
  11.2474859946    5.3209612260    2.0848943984
   4.5986569496    5.3209612260    6.0304761566
   5.4246981782    5.3209612260    3.1130755931
   4.5166998474    5.3209612261    0.2586436912
  13.5752105248    0.5317562260    4.6553473689
  14.2293783809    0.5317562262    2.0593096984
   7.5528094772    0.5317562260    5.4966733651
   8.3360920864    0.5317562260    2.5989849957
  16.4866044329    5.3209612260    4.1412567716
   0.6364969671    8.8072160862    0.4704553475
   7.7892393774    3.7619031235    4.4601408567
   8.5054091306    3.7097289879    1.5660279006
  16.4660057895    8.7058787789    6.0142415002
  16.6559214603    8.4989339879    3.1082996927
   2.1115733913    3.6369242340    5.2875950058
   2.6826213142    3.7097289879    2.5942090953
  10.8331336608    8.4989339879    4.1364808712
  11.5762680584    8.7675673245    1.2858496992
   5.0248590302    8.4242912515    4.7906202700
   5.5940152224    8.4989339879    2.0801184980
  13.7445275690    3.7097289879    3.6223902738
  14.4864389575    3.9866995285    0.8798906449
