Type_048 Type_148                       
   1.00000000000000     
     6.2785599999999997    0.0000000000000000    0.0000000000000000
     2.0928533957000002   11.0601955134000001    0.0000000000000000
     0.0000000000000000    0.0000000000000000   29.1568199999999997
   Ty   Ty
    48    48
Direct
  0.2563094379991355  0.0164585909968267  0.1523934869989247
  0.2563094379991355  0.0164585909968267  0.4809070209988633
  0.0063094380010256  0.2664585829996824  0.3166502539988940
  0.9747574564731920  0.2703816453404357  0.6378055255339916
  0.2099814257387536  0.0263007861070435  0.0704560077264915
  0.2563094379991355  0.0164585909968267  0.3941117740000450
  0.0063094380010256  0.2664585829996824  0.2298550070000758
  0.0063094380010256  0.2664585829996824  0.5583685420014959
  0.1842205419119409  0.2249986216143327  0.1198051348295195
  0.1902579379989220  0.2146130849969339  0.4375093980001949
  0.4402579380007481  0.4646130780033815  0.2732526299987441
  0.4596562462600673  0.4735673475350595  0.5912632588807725
  0.7563094379991355  0.0164585909968267  0.1523934869989247
  0.7563094379991355  0.0164585909968267  0.4809070209988633
  0.5063094380010256  0.2664585829996824  0.3166502539988940
  0.5441475830302522  0.2631493854854341  0.6369734710335351
  0.8109800198603736  0.0239048198541951  0.0714691462237624
  0.7563094379991355  0.0164585909968267  0.3941117740000450
  0.5063094380010256  0.2664585829996824  0.2298550070000758
  0.5063094380010256  0.2664585829996824  0.5583685420014959
  0.7049662199995410  0.2289227441081323  0.1212447526993685
  0.6902579379989220  0.2146130849969339  0.4375093980001949
  0.9402579380007481  0.4646130780033815  0.2732526299987441
  0.9225858628121415  0.4719499621481233  0.5937163501300873
  0.2563094380071007  0.5164585909968267  0.1523934869989247
  0.2563094380071007  0.5164585909968267  0.4809070209988633
  0.0063094380089836  0.7664585829996824  0.3166502539988940
  0.0153850386836254  0.7620297206671225  0.6381732320019822
  0.2563094380071007  0.5164585909968267  0.0655982400001065
  0.2563094380071007  0.5164585909968267  0.3941117740000450
  0.0063094380089836  0.7664585829996824  0.2298550070000758
  0.0063094380089836  0.7664585829996824  0.5583685420014959
  0.1902579380068872  0.7146130849969339  0.1089958629987748
  0.1902579380068872  0.7146130849969339  0.4375093980001949
  0.4402579380087133  0.9646130780033815  0.2732526299987441
  0.4402579380087133  0.9646130780033815  0.6017661650001642
  0.7563094380071007  0.5164585909968267  0.1523934869989247
  0.7563094380071007  0.5164585909968267  0.4809070209988633
  0.5063094380089836  0.7664585829996824  0.3166502539988940
  0.5131375410399812  0.7619801398437716  0.6381848083398651
  0.7945017924857041  0.5145937698664014  0.0696851680807455
  0.7563094380071007  0.5164585909968267  0.3941117740000450
  0.5063094380089836  0.7664585829996824  0.2298550070000758
  0.5063094380089836  0.7664585829996824  0.5583685420014959
  0.6902579380068872  0.7146130849969339  0.1089958629987748
  0.6902579380068872  0.7146130849969339  0.4375093980001949
  0.9402579380087133  0.9646130780033815  0.2732526299987441
  0.9402579380087133  0.9646130780033815  0.6017661650001642
  0.4684041049957912  0.1666175859972228  0.3822484939990005
  0.2184041049976173  0.4166175790036704  0.2179917260009816
  0.2184041049976173  0.4166175790036704  0.5465052609989698
  0.4684041049957912  0.1666175859972228  0.1642567669999693
  0.4684041049957912  0.1666175859972228  0.4927703020013823
  0.0383900791502967  0.4576726964335478  0.0234824616916356
  0.2184041049976173  0.4166175790036704  0.3285135350014201
  0.0525116050000562  0.4142950790018531  0.1089958629987748
  0.0525116050000562  0.4142950790018531  0.4375093980001949
  0.3025116049982302  0.1642950859953984  0.2732526299987441
  0.3025116049982302  0.1642950859953984  0.6017661650001642
  0.9562723923097636  0.1773137477293218  0.0720793796957295
  0.9684041049957912  0.1666175859972228  0.3822484939990005
  0.7184041049976173  0.4166175790036704  0.2179917260009816
  0.7184041049976173  0.4166175790036704  0.5465052609989698
  0.9684041049957912  0.1666175859972228  0.1642567669999693
  0.9684041049957912  0.1666175859972228  0.4927703020013823
  0.7184041049976173  0.4166175790036704  0.3285135350014201
  0.7059590710899997  0.4068214312892238  0.6404165198090865
  0.5525116050000562  0.4142950790018531  0.1089958629987748
  0.5525116050000562  0.4142950790018531  0.4375093980001949
  0.8025116049982302  0.1642950859953984  0.2732526299987441
  0.8025116049982302  0.1642950859953984  0.6017661650001642
  0.4752398772911732  0.6366800307524869  0.0690363564750882
  0.4684041050037564  0.6666175859972228  0.3822484939990005
  0.2184041050085952  0.9166175789946323  0.2179917260009816
  0.2184041050085952  0.9166175789946323  0.5465052609989698
  0.4684041050037564  0.6666175859972228  0.1642567669999693
  0.4684041050037564  0.6666175859972228  0.4927703020013823
  0.0241085000329804  0.9763894862542344  0.0200775606153201
  0.2184041050085952  0.9166175789946323  0.3285135350014201
  0.2176376306533143  0.8914392672312843  0.6422751501878494
  0.0525116050080214  0.9142950790018531  0.1089958629987748
  0.0525116050080214  0.9142950790018531  0.4375093980001949
  0.3025116050061953  0.6642950859953984  0.2732526299987441
  0.3025116050061953  0.6642950859953984  0.6017661650001642
  0.9644209631254270  0.6599927786137343  0.0666758899941797
  0.9684041050037564  0.6666175859972228  0.3822484939990005
  0.7184041050085952  0.9166175789946323  0.2179917260009816
  0.7184041050085952  0.9166175789946323  0.5465052609989698
  0.9684041050037564  0.6666175859972228  0.1642567669999693
  0.9684041050037564  0.6666175859972228  0.4927703020013823
  0.7184041050085952  0.9166175789946323  0.3285135350014201
  0.7178376768932395  0.8905753899889248  0.6421547113848476
  0.5525116050080214  0.9142950790018531  0.1089958629987748
  0.5525116050080214  0.9142950790018531  0.4375093980001949
  0.8025116050061953  0.6642950859953984  0.2732526299987441
  0.8025116050061953  0.6642950859953984  0.6017661650001642
 
  0.00000000E+00  0.00000000E+00  0.00000000E+00
  0.00000000E+00  0.00000000E+00  0.00000000E+00
  0.00000000E+00  0.00000000E+00  0.00000000E+00
  0.00000000E+00  0.00000000E+00  0.00000000E+00
  0.00000000E+00  0.00000000E+00  0.00000000E+00
  0.00000000E+00  0.00000000E+00  0.00000000E+00
  0.00000000E+00  0.00000000E+00  0.00000000E+00
  0.00000000E+00  0.00000000E+00  0.00000000E+00
  0.00000000E+00  0.00000000E+00  0.00000000E+00
  0.00000000E+00  0.00000000E+00  0.00000000E+00
  0.00000000E+00  0.00000000E+00  0.00000000E+00
  0.00000000E+00  0.00000000E+00  0.00000000E+00
  0.00000000E+00  0.00000000E+00  0.00000000E+00
  0.00000000E+00  0.00000000E+00  0.00000000E+00
  0.00000000E+00  0.00000000E+00  0.00000000E+00
  0.00000000E+00  0.00000000E+00  0.00000000E+00
  0.00000000E+00  0.00000000E+00  0.00000000E+00
  0.00000000E+00  0.00000000E+00  0.00000000E+00
  0.00000000E+00  0.00000000E+00  0.00000000E+00
  0.00000000E+00  0.00000000E+00  0.00000000E+00
  0.00000000E+00  0.00000000E+00  0.00000000E+00
  0.00000000E+00  0.00000000E+00  0.00000000E+00
  0.00000000E+00  0.00000000E+00  0.00000000E+00
  0.00000000E+00  0.00000000E+00  0.00000000E+00
  0.00000000E+00  0.00000000E+00  0.00000000E+00
  0.00000000E+00  0.00000000E+00  0.00000000E+00
  0.00000000E+00  0.00000000E+00  0.00000000E+00
  0.00000000E+00  0.00000000E+00  0.00000000E+00
  0.00000000E+00  0.00000000E+00  0.00000000E+00
  0.00000000E+00  0.00000000E+00  0.00000000E+00
  0.00000000E+00  0.00000000E+00  0.00000000E+00
  0.00000000E+00  0.00000000E+00  0.00000000E+00
  0.00000000E+00  0.00000000E+00  0.00000000E+00
  0.00000000E+00  0.00000000E+00  0.00000000E+00
  0.00000000E+00  0.00000000E+00  0.00000000E+00
  0.00000000E+00  0.00000000E+00  0.00000000E+00
  0.00000000E+00  0.00000000E+00  0.00000000E+00
  0.00000000E+00  0.00000000E+00  0.00000000E+00
  0.00000000E+00  0.00000000E+00  0.00000000E+00
  0.00000000E+00  0.00000000E+00  0.00000000E+00
  0.00000000E+00  0.00000000E+00  0.00000000E+00
  0.00000000E+00  0.00000000E+00  0.00000000E+00
  0.00000000E+00  0.00000000E+00  0.00000000E+00
  0.00000000E+00  0.00000000E+00  0.00000000E+00
  0.00000000E+00  0.00000000E+00  0.00000000E+00
  0.00000000E+00  0.00000000E+00  0.00000000E+00
  0.00000000E+00  0.00000000E+00  0.00000000E+00
  0.00000000E+00  0.00000000E+00  0.00000000E+00
  0.00000000E+00  0.00000000E+00  0.00000000E+00
  0.00000000E+00  0.00000000E+00  0.00000000E+00
  0.00000000E+00  0.00000000E+00  0.00000000E+00
  0.00000000E+00  0.00000000E+00  0.00000000E+00
  0.00000000E+00  0.00000000E+00  0.00000000E+00
  0.00000000E+00  0.00000000E+00  0.00000000E+00
  0.00000000E+00  0.00000000E+00  0.00000000E+00
  0.00000000E+00  0.00000000E+00  0.00000000E+00
  0.00000000E+00  0.00000000E+00  0.00000000E+00
  0.00000000E+00  0.00000000E+00  0.00000000E+00
  0.00000000E+00  0.00000000E+00  0.00000000E+00
  0.00000000E+00  0.00000000E+00  0.00000000E+00
  0.00000000E+00  0.00000000E+00  0.00000000E+00
  0.00000000E+00  0.00000000E+00  0.00000000E+00
  0.00000000E+00  0.00000000E+00  0.00000000E+00
  0.00000000E+00  0.00000000E+00  0.00000000E+00
  0.00000000E+00  0.00000000E+00  0.00000000E+00
  0.00000000E+00  0.00000000E+00  0.00000000E+00
  0.00000000E+00  0.00000000E+00  0.00000000E+00
  0.00000000E+00  0.00000000E+00  0.00000000E+00
  0.00000000E+00  0.00000000E+00  0.00000000E+00
  0.00000000E+00  0.00000000E+00  0.00000000E+00
  0.00000000E+00  0.00000000E+00  0.00000000E+00
  0.00000000E+00  0.00000000E+00  0.00000000E+00
  0.00000000E+00  0.00000000E+00  0.00000000E+00
  0.00000000E+00  0.00000000E+00  0.00000000E+00
  0.00000000E+00  0.00000000E+00  0.00000000E+00
  0.00000000E+00  0.00000000E+00  0.00000000E+00
  0.00000000E+00  0.00000000E+00  0.00000000E+00
  0.00000000E+00  0.00000000E+00  0.00000000E+00
  0.00000000E+00  0.00000000E+00  0.00000000E+00
  0.00000000E+00  0.00000000E+00  0.00000000E+00
  0.00000000E+00  0.00000000E+00  0.00000000E+00
  0.00000000E+00  0.00000000E+00  0.00000000E+00
  0.00000000E+00  0.00000000E+00  0.00000000E+00
  0.00000000E+00  0.00000000E+00  0.00000000E+00
  0.00000000E+00  0.00000000E+00  0.00000000E+00
  0.00000000E+00  0.00000000E+00  0.00000000E+00
  0.00000000E+00  0.00000000E+00  0.00000000E+00
  0.00000000E+00  0.00000000E+00  0.00000000E+00
  0.00000000E+00  0.00000000E+00  0.00000000E+00
  0.00000000E+00  0.00000000E+00  0.00000000E+00
  0.00000000E+00  0.00000000E+00  0.00000000E+00
  0.00000000E+00  0.00000000E+00  0.00000000E+00
  0.00000000E+00  0.00000000E+00  0.00000000E+00
  0.00000000E+00  0.00000000E+00  0.00000000E+00
  0.00000000E+00  0.00000000E+00  0.00000000E+00
  0.00000000E+00  0.00000000E+00  0.00000000E+00
