Type_036 Type_136 
1.0
1.6884694054200001e+01 0.0000000000000000e+00 0.0000000000000000e+00 
0.0000000000000000e+00 9.5784099999999999e+00 0.0000000000000000e+00 
0.0000000000000000e+00 0.0000000000000000e+00 1.6173863021300001e+01 
Type_0 Type_1 
36 36 
Cartesian
   1.1524973452    8.8384501440    4.6578617937
   1.6792463663    8.8090567618    2.1876475639
   9.8312243663    4.0556245298    3.4682648957
  10.5651407825    3.5534313016    1.2103571085
   3.9799764881    4.1292648035    4.2291968618
   4.5423906007    4.0141547440    1.6971337639
  11.6132573336    0.5302938690    5.0935286624
  12.7426182745    8.8448295298    2.9541742926
   6.9198304750    8.8448295298    3.9823554826
   7.6422894326    8.3974561715    1.6557916876
  14.5076643676    5.3230484492    4.6005152184
  15.6540121827    4.0556245298    2.4400837057
   6.3166252827    5.3412702045    4.9975009058
   7.6778101065    5.3209612260    3.0607874323
  15.5622293783    0.4856497777    3.9220486724
  16.4119918310    0.5317562260    1.5185156554
   1.8550223070    5.3209612260    4.0889686222
   2.2188802834    5.3212258151    1.3730004384
   9.1879730809    0.3162276755    4.5071524602
  10.5892040147    0.5317562260    2.5466968454
   4.7973983504    0.4451968170    3.2272054289
   6.0091705849    0.5205447895    0.9173228475
  12.0944030152    5.1287338335    3.9915185271
  13.5005979229    5.3209612260    2.0326062423
   1.2138815739    1.8498163198    4.5496501921
   1.6323507658    1.8112174533    2.1311804864
   9.8312243663    6.5862979222    3.4682648957
  10.6134265297    7.1333254014    1.2556435818
   4.0084365668    6.5862979222    4.4964460857
   4.5357752172    6.6279307196    1.7316826144
  12.5285491598    2.8777849078    5.0682633293
  12.7426182745    1.7970929222    2.9541742926
   6.9792044594    1.8026790486    3.7285103491
   7.6519362803    2.1634734454    1.4419759931
  15.9515840327    7.3739686303    4.7184222041
  15.6540121827    6.5862979222    2.4400837057
   0.5116469032    1.9664661676    0.4660735442
   7.7541287451    6.8914799685    4.4407202580
   8.6671290196    6.6442777459    1.6774344568
  16.6559214603    2.1429884642    3.0845435538
   2.0811226552    7.0393894124    5.2372559325
   2.6826213142    6.9321934642    2.5704529669
  10.8331336608    2.1429884642    4.1127247437
  11.6062366004    1.8510686674    1.2328987150
   5.5940152224    2.1429884642    2.0563623800
  13.7445275690    6.9321934642    3.5986341568
  14.4014759261    6.7140363640    0.8567013656
   2.5133042869    0.5317562260    3.6034100560
  10.3373443009    5.3167350050    5.0229187898
  11.2474859946    5.3209612260    2.0611382791
   4.5158931975    5.1948973701    5.9155403560
   5.4246981782    5.3209612260    3.0893194691
   3.9384666538    5.3363711902    0.2639057386
  13.5752105248    0.5317562260    4.6315912459
  14.3243828019    0.5189551168    2.1210650988
   0.1206545355    5.3107410881    1.4292660543
   7.3886972784    0.6796194266    5.4000575715
   8.3360920864    0.5317562260    2.5752288660
  16.4866044329    5.3209612260    4.1175006429
   0.7601148408    8.9469473246    0.4107790100
   7.6643005837    3.7449618437    4.4265057660
   8.6146886647    3.9225576826    1.7168360159
  16.2893995031    9.1694154031    5.6825390095
  16.6559214603    8.4989339879    3.0845435538
   2.1681687995    3.5714314707    5.1726522849
   2.6826213142    3.7097289879    2.5704529669
  10.8331336608    8.4989339879    4.1127247437
  11.6469349286    8.8346545590    1.2250922389
   4.9586208804    8.4853070739    4.6581580038
   5.5940152224    8.4989339879    2.0563623800
  13.7445275690    3.7097289879    3.5986341568
  14.4296567664    3.9557603337    0.8458870592
