
units		    metal
atom_style     atomic
boundary	    p p p
read_data 	    /home/khalkhal/Simulations/VASP/Millerite/Machine_Learning/new-training-builder/VASP_folder/2745/GEOM_OPT/conf.lmp
include	    /home/khalkhal/Simulations/VASP/Millerite/Machine_Learning/new-training-builder/VASP_folder/2745/GEOM_OPT/system.freeze
pair_style     eam/alloy
pair_coeff     * * /home/khalkhal/Simulations/VASP/Millerite/NiS.eam.alloy Ni S 
fix            1 bulk setforce 0.0 0.0 0.0
min_style	    cg
minimize	    1.0e-5 1.0e-7 10000 10000
write_data 	/home/khalkhal/Simulations/VASP/Millerite/Machine_Learning/new-training-builder/VASP_folder/2745/GEOM_OPT/rlx.lmp
